X,Y,u_x,u_y,,,X1,Y1,sigma_xx,sigma_yy,sigma_xy
0,4,0,-0.002996528,,,0.021790007,0.844907049,-22.78301298,-56.64267365,0.010814374
0,3.5,0,-0.002906616,,,0.021790007,0.681832025,-24.23537233,-59.49179467,0.012213709
0,3.75,0,-0.002972586,,,0.021790007,1.318334524,-18.71534704,-48.30835795,0.006381624
0,3.875,0,-0.002989794,,,0.021790007,1.1552595,-20.09133194,-51.19010888,0.007937767
0,3.625,0,-0.00294487,,,0.02182608,3.318064147,-4.577684829,-12.32141327,-0.002436901
0,3.5,0,-0.002906616,,,0.02182608,3.154989123,-5.804489407,-15.27538774,-0.002520223
0,2,0,-0.00162357,,,0.02182608,2.844636672,-8.139186448,-20.89604424,-0.002211842
0,2.5,0,-0.00221988,,,0.02182608,2.681561648,-9.370153946,-23.84664812,-0.001848644
0,2.25,0,-0.001942674,,,0.025867133,0.968554348,-21.69906869,-54.47521903,0.011506091
0,2.375,0,-0.002086527,,,0.025867133,0.56318787,-25.30794263,-61.55826184,0.0156192
0,2.125,0,-0.001788347,,,0.025867133,1.031643363,-21.15188931,-53.36683419,0.010809696
0,2.5,0,-0.00221988,,,0.025867133,1.437009841,-17.73034492,-46.20387687,0.006237097
0,3.5,0,-0.002906616,,,0.025909956,3.436688875,-3.683346441,-10.17339048,-0.002671319
0,3.5,0,-0.002906616,,,0.025909956,3.031322397,-6.734173398,-17.51556638,-0.002926797
0,3,0,-0.002647868,,,0.025909956,2.968233382,-7.208645611,-18.65821031,-0.002851663
0,3.25,0,-0.002798409,,,0.025909956,2.562866904,-10.26938706,-25.99235663,-0.001810664
0,3.375,0,-0.0028578,,,0.028786902,0.31825125,-27.56205664,-65.80937876,0.019596495
0,3.125,0,-0.002728433,,,0.028786902,0.155176226,-29.08999441,-68.6303142,0.020736276
0,3,0,-0.002647868,,,0.028819875,2.31825125,-12.13372248,-30.40829065,-0.000994417
0,2.5,0,-0.00221988,,,0.028819875,2.155176226,-13.38623361,-33.34718971,-0.000267445
0,2.75,0,-0.002454995,,,0.028819875,1.844823774,-14.44475099,-38.92645293,0.00207965
0,2.875,0,-0.002556719,,,0.028819875,1.68174875,-15.74087014,-41.8447779,0.003957828
0,2.625,0,-0.002342709,,,0.030082826,3.844823774,-0.578321197,-2.796226341,-0.001152573
0,2.5,0,-0.00221988,,,0.030082826,3.68174875,-1.825720647,-5.740590038,-0.002138238
0,0.5,0,-0.000499586,,,0.034173216,0.436910986,-26.46351654,-63.75223333,0.022074697
0,0,0,0,,,0.034173216,0.031544507,-30.26085561,-70.76510759,0.025386874
0,0.5,0,-0.000499586,,,0.034212359,2.436910986,-11.22729456,-28.2672755,-0.001784968
0,0.25,0,-0.000257354,,,0.034212359,2.031544507,-14.34119777,-35.57252692,0.000331067
0,0.375,0,-0.000380371,,,0.034212359,1.563089014,-16.69849289,-43.96141473,0.006395665
0,0.125,0,-0.000130557,,,0.034212359,1.968455493,-13.47643663,-36.70711199,0.000883283
0,2,0,-0.00162357,,,0.035711621,3.563089014,-2.727337262,-7.885996686,-0.003176113
0,1.5,0,-0.001313221,,,0.035711621,3.968455493,0.375130913,-0.567928211,-0.000293188
0,1.75,0,-0.00147663,,,0.071289777,2.531020098,-10.51092779,-26.56783268,-0.004675501
0,1.875,0,-0.001552172,,,0.071356204,1.468698604,-17.46867658,-45.64073988,0.016232438
0,1.625,0,-0.00139697,,,0.071778675,0.531767262,-25.59340899,-62.10422082,0.04413007
0,1.5,0,-0.001313221,,,0.072231954,3.4679447,-3.447528913,-9.607652977,-0.007237992
0,0.5,0,-0.000499586,,,0.07959218,2.468153194,-10.98897948,-27.70331064,-0.00451483
0,1.5,0,-0.001313221,,,0.07970143,1.531688763,-16.95297524,-44.52036149,0.01597796
0,0.5,0,-0.000499586,,,0.080084759,0.468579392,-26.171569,-63.20194118,0.050921285
0,1,0,-0.000937921,,,0.082033619,3.531255825,-2.968786539,-8.461910719,-0.007644106
0,0.75,0,-0.000726514,,,0.102210082,0.875747241,-22.50918653,-56.10185622,0.049459304
0,0.875,0,-0.000834172,,,0.102210082,0.749677359,-23.62606811,-58.30682386,0.054636661
0,0.625,0,-0.000614976,,,0.102210082,1.125033986,-20.34707493,-51.72232868,0.0386042
0,1.5,0,-0.001313221,,,0.102210082,1.251103868,-19.27726242,-49.49728251,0.032978548
0,1,0,-0.000937921,,,0.10237929,3.249835618,-5.091361635,-13.55737526,-0.011693646
0,1.25,0,-0.001133571,,,0.10237929,3.123765735,-6.039152834,-15.8411688,-0.011804478
0,1.375,0,-0.001225412,,,0.10237929,2.87447899,-7.913956768,-20.35599881,-0.010624006
0,1.125,0,-0.001037731,,,0.10237929,2.748409108,-8.864490761,-22.63764492,-0.009446946
0.102502524,0.625391731,2.1911E-06,-0.000615323,,,0.127247638,0.682235049,-24.22879176,-59.48327081,0.07135076
0.102502524,1.375391731,3.78854E-06,-0.001225687,,,0.127247638,0.973913774,-21.64914322,-54.37996894,0.056356553
0.102502524,0.625391731,2.1911E-06,-0.000615323,,,0.127247638,1.027058824,-21.18819266,-53.44633592,0.053475884
0.102502524,1.000391731,3.14338E-06,-0.000938232,,,0.127247638,1.318737548,-18.70855061,-48.30044387,0.037296341
0.102502524,0.750391731,2.54181E-06,-0.000726849,,,0.127458296,3.317158625,-4.584910642,-12.33801552,-0.014231221
0.102502524,0.875391731,2.85953E-06,-0.000834495,,,0.127458296,3.0254799,-6.777801786,-17.62164374,-0.01437449
0.102502524,1.375391731,3.78854E-06,-0.001225687,,,0.127458296,2.972334851,-7.177376394,-18.58419018,-0.014061055
0.102502524,1.000391731,3.14338E-06,-0.000938232,,,0.127458296,2.680656126,-9.376095193,-23.86329456,-0.010795011
0.102502524,1.250391731,3.60777E-06,-0.001133858,,,0.13503032,0.250713255,-28.19026727,-66.97617246,0.094410711
0.102502524,1.125391731,3.3928E-06,-0.00103803,,,0.13503032,0.124643373,-29.37649131,-69.155297,0.098195225
0.102672216,3.374119852,3.22382E-06,-0.00285744,,,0.135184986,2.250713255,-12.65013852,-31.62601722,-0.003194621
0.102672216,2.999119852,3.64568E-06,-0.002647282,,,0.135184986,2.124643373,-13.62028427,-33.89695344,-0.000564979
0.102672216,3.374119852,3.22382E-06,-0.00285744,,,0.135184986,1.749286745,-15.19784703,-40.63703849,0.014887617
0.102672216,3.249119852,3.35966E-06,-0.002797974,,,0.135184986,1.875356627,-14.20117255,-38.37861206,0.008216577
0.102672216,3.124119852,3.50249E-06,-0.002727922,,,0.141109095,3.749286745,-1.312259112,-4.52057104,-0.008239289
0.102672216,2.624119852,4.01933E-06,-0.002341893,,,0.141109095,3.875356627,-0.345757054,-2.245578828,-0.004420292
0.102672216,2.999119852,3.64568E-06,-0.002647282,,,0.165566813,1.345431591,-18.48336501,-47.82708131,0.046629816
0.102672216,2.874119852,3.78303E-06,-0.002556057,,,0.16568544,2.65382895,-9.578352697,-24.348562,-0.013487214
0.102672216,2.749119852,3.90916E-06,-0.002454256,,,0.165922695,0.655766895,-24.46485489,-59.94357682,0.094741811
0.102672216,2.624119852,4.01933E-06,-0.002341893,,,0.166479113,3.343487969,-4.386985642,-11.86127529,-0.018364016
0.135416667,0.375,1.84314E-06,-0.000380359,,,0.168107578,0.026572525,-30.3061147,-70.84668622,0.12518116
0.135416667,0,0,0,,,0.168107578,0.31825125,-27.55833312,-65.80593401,0.114605267
0.135416667,0.375,1.84314E-06,-0.000380359,,,0.168300131,2.026572525,-14.37767373,-35.66175059,0.001843468
0.135416667,0.125,6.45164E-07,-0.000130552,,,0.168300131,2.31825125,-12.13164236,-30.40848884,-0.005717336
0.135416667,0.25,1.26087E-06,-0.000257345,,,0.168300131,1.68174875,-15.73523428,-41.84403898,0.023197734
0.135571775,2,5.57177E-06,-0.001623572,,,0.168300131,1.973427475,-13.43283423,-36.6174417,0.004113145
0.135571775,2.375,5.51513E-06,-0.002086539,,,0.175675419,3.68174875,-1.828298115,-5.740683542,-0.01247176
0.135571775,2.125,5.58898E-06,-0.001788351,,,0.175675419,3.973427475,0.409799332,-0.478402316,-0.001229422
0.135571775,2.25,5.56981E-06,-0.001942682,,,0.205589931,0.876142325,-22.4991488,-56.09232965,0.099603919
0.135571775,2.375,5.51513E-06,-0.002086539,,,0.205589931,1.12542907,-20.33677168,-51.71332834,0.077773922
0.135571775,2,5.57177E-06,-0.001623572,,,0.205930284,3.122878054,-6.04563638,-15.85774145,-0.023773353
0.135571775,1.625,5.35761E-06,-0.001396964,,,0.205930284,2.873591309,-7.919385356,-20.37261732,-0.021356121
0.135571775,1.875,5.5381E-06,-0.001552171,,,0.206527275,2.344569123,-11.92914525,-29.93389478,-0.00781361
0.135571775,1.75,5.46755E-06,-0.001476626,,,0.206619306,1.655297744,-15.94457901,-42.31590337,0.030801393
0.135571775,1.625,5.35761E-06,-0.001396964,,,0.206782634,0.344928145,-27.30811459,-65.34203218,0.139519381
0.141512834,4,3.98522E-06,-0.002996549,,,0.214696236,3.654933045,-2.033609599,-6.225431198,-0.016232113
0.141512834,3.625,4.13363E-06,-0.002944906,,,0.245062074,2.52489833,-10.55361204,-26.67911521,-0.015769358
0.141512834,3.875,3.98048E-06,-0.002989821,,,0.245563432,1.474220381,-17.41140897,-45.5403374,0.055586323
0.141512834,3.75,4.03295E-06,-0.002972618,,,0.247641684,0.527265296,-25.62489926,-62.17633943,0.152993934
0.141512834,3.625,4.13363E-06,-0.002944906,,,0.249696902,3.471820264,-3.42115988,-9.537983618,-0.025028595
0.179824578,2.498802093,7.20224E-06,-0.00221868,,,0.252055869,2.471940382,-10.95597705,-27.63552479,-0.014262779
0.179824578,2.498802093,7.20224E-06,-0.00221868,,,0.2525933,1.527282157,-16.97660338,-44.59663093,0.051399602
0.180257498,1.500571634,6.9262E-06,-0.001313598,,,0.254638579,0.474036971,-26.11191092,-63.10048653,0.16191777
0.180257498,1.500571634,6.9262E-06,-0.001313598,,,0.257953648,3.525152416,-3.018603959,-8.572800959,-0.024332423
0.181931604,0.500490971,3.21361E-06,-0.000500022,,,0.26097245,0.845821125,-22.76112676,-56.62097255,0.129838777
0.181931604,0.500490971,3.21361E-06,-0.000500022,,,0.26097245,0.974424826,-21.6336963,-54.36708954,0.115844313
0.183558097,3.498856051,5.54248E-06,-0.002906281,,,0.26097245,1.027569876,-21.1726474,-53.43364269,0.109944117
0.183558097,3.498856051,5.54248E-06,-0.002906281,,,0.26097245,1.156173576,-20.06876424,-51.16979223,0.095392718
0.205005048,0.750783462,5.0919E-06,-0.000727165,,,0.261404489,3.152935359,-5.819820982,-15.31361156,-0.03026559
0.205005048,1.250783462,7.22447E-06,-0.001134131,,,0.261404489,3.024331659,-6.785385886,-17.64330964,-0.029505592
0.205005048,0.750783462,5.0919E-06,-0.000727165,,,0.261404489,2.971186609,-7.18459175,-18.60587318,-0.028850059
0.205005048,1.000783462,6.29556E-06,-0.000938525,,,0.261404489,2.842582908,-8.151732259,-20.93438275,-0.026441775
0.205005048,0.875783462,5.72767E-06,-0.000834799,,,0.271606026,0.124643373,-29.3710241,-69.14717527,0.198026176
0.205005048,1.250783462,7.22447E-06,-0.001134131,,,0.271917128,2.124643373,-13.61598201,-33.89677181,-0.000879498
0.205005048,1.000783462,6.29556E-06,-0.000938525,,,0.271917128,1.875356627,-14.19056017,-38.37768866,0.016799499
0.205005048,1.125783462,6.79454E-06,-0.001038312,,,0.281690825,2.622571247,-9.811700002,-24.91444752,-0.021745267
0.205344433,3.248239704,6.72056E-06,-0.002797579,,,0.281953302,1.376317244,-18.21516049,-47.27718923,0.07592417
0.205344433,2.998239704,7.29633E-06,-0.002646731,,,0.283622632,0.625523556,-24.72815851,-60.46508932,0.165511911
0.205344433,3.248239704,6.72056E-06,-0.002797579,,,0.283833145,3.875356627,-0.352876589,-2.245632426,-0.008960083
0.205344433,3.123239704,7.00825E-06,-0.00272745,,,0.285413693,3.373338305,-4.164034278,-11.32128052,-0.031069048
0.205344433,2.748239704,7.82593E-06,-0.002453545,,,0.299291625,1.182867619,-19.83701282,-50.69767818,0.106057393
0.205344433,2.998239704,7.29633E-06,-0.002646731,,,0.299631634,2.815755732,-8.352744759,-21.42032934,-0.029577682
0.205344433,2.873239704,7.57254E-06,-0.002555426,,,0.299647507,0.819352971,-22.99081212,-57.08210958,0.152461621
0.205344433,2.748239704,7.82593E-06,-0.002453545,,,0.300425306,3.179264704,-5.622201503,-14.83695699,-0.034814046
0.270833333,0.25,2.52792E-06,-0.000257319,,,0.314496521,2.374162139,-11.69869711,-29.40051637,-0.013122279
0.270833333,0,0,0,,,0.314928206,1.625213376,-16.17500853,-42.85089171,0.051271303
0.270833333,0.25,2.52792E-06,-0.000257319,,,0.31644287,0.375846198,-27.0127536,-64.79925807,0.211182523
0.270833333,0.125,1.29362E-06,-0.000130538,,,0.324143497,3.623502688,-2.276870441,-6.793952124,-0.026296071
0.27114355,2,1.11593E-05,-0.001623576,,,0.344772187,0.026572525,-30.29932382,-70.83248528,0.257824504
0.27114355,2.25,1.11577E-05,-0.001942705,,,0.344772187,0.155176226,-29.0775287,-68.61338734,0.249752292
0.27114355,2.125,1.11952E-05,-0.001788363,,,0.345167095,2.026572525,-14.37088766,-35.66096525,0.004350175
0.27114355,2.25,1.11577E-05,-0.001942705,,,0.345167095,2.155176226,-13.37700658,-33.34697332,-0.002483169
0.27114355,2,1.11593E-05,-0.001623576,,,0.345167095,1.844823774,-14.4218274,-38.92426018,0.025670099
0.27114355,1.75,1.09525E-05,-0.001476614,,,0.345167095,1.973427475,-13.41640132,-36.61639815,0.008991076
0.27114355,1.875,1.10929E-05,-0.001552166,,,0.35827583,0.969824705,-21.66096865,-54.44320654,0.160271036
0.27114355,1.75,1.09525E-05,-0.001476614,,,0.35827583,1.03291372,-21.113504,-53.33536885,0.150616205
0.282496794,2.622921945,1.10821E-05,-0.002340842,,,0.358868954,3.028468136,-6.753101829,-17.5693924,-0.040635478
0.282760022,1.375963365,1.04766E-05,-0.001226056,,,0.358868954,2.965379122,-7.226491652,-18.71207477,-0.039508537
0.283025667,4,7.93608E-06,-0.002996609,,,0.360293089,3.844823774,-0.592929414,-2.79637322,-0.013978123
0.283025667,3.75,8.04078E-06,-0.002972712,,,0.360293089,3.973427475,0.396801019,-0.478405946,-0.002557993
0.283025667,3.875,7.93079E-06,-0.002989899,,,0.383394239,2.181494099,-13.17212436,-32.8731158,-0.004168846
0.283025667,3.75,8.04078E-06,-0.002972712,,,0.383447244,0.181853121,-28.82245096,-68.14869438,0.275893293
0.284434128,0.625882702,6.10101E-06,-0.000615711,,,0.38348627,1.818372768,-14.62481705,-39.3975717,0.032681917
0.286230314,3.372975903,8.98149E-06,-0.002857082,,,0.385241819,2.747753447,-8.862109954,-22.65175515,-0.035331656
0.307507572,0.876175193,8.61109E-06,-0.000835085,,,0.385333151,1.250642445,-19.25086949,-49.49761629,0.12560272
0.307507572,1.126175193,1.02126E-05,-0.001038578,,,0.387002481,0.751988522,-23.57810026,-58.25355193,0.207908901
0.307507572,0.876175193,8.61109E-06,-0.000835085,,,0.388964687,3.246380742,-5.119186482,-13.62185156,-0.044822305
0.307507572,1.001175193,9.46366E-06,-0.0009388,,,0.399313906,3.818008069,-0.801484159,-3.280225562,-0.017942941
0.307507572,1.126175193,1.02126E-05,-0.001038578,,,0.403764901,1.064602482,-20.83257424,-52.77583133,0.164553893
0.307507572,1.001175193,9.46366E-06,-0.0009388,,,0.404187372,0.938404098,-21.92779365,-54.99153848,0.186518785
0.308016649,3.122359555,1.05186E-05,-0.002727015,,,0.404248775,2.933532315,-7.46444854,-19.28939977,-0.043720718
0.308016649,2.997359555,1.09551E-05,-0.002646215,,,0.405190951,3.059723961,-6.518096744,-17.00378149,-0.046390125
0.308016649,3.122359555,1.05186E-05,-0.002727015,,,0.451228663,2.248092256,-12.65571446,-31.67363025,-0.00926283
0.308016649,2.872359555,1.13732E-05,-0.002554826,,,0.451660348,1.751283258,-15.14458556,-40.59667884,0.05106212
0.308016649,2.997359555,1.09551E-05,-0.002646215,,,0.453018576,0.249776316,-28.17563183,-66.96704177,0.319468423
0.308016649,2.872359555,1.13732E-05,-0.002554826,,,0.463054532,2.621363087,-9.812089352,-24.93819152,-0.035280348
0.315396353,2.373802093,1.28628E-05,-0.00208526,,,0.463753634,1.37689377,-18.18072673,-47.26025353,0.126156599
0.315829273,1.625571634,1.2513E-05,-0.001397308,,,0.466867548,3.74957257,-1.329606717,-4.515909194,-0.027799821
0.317348271,0.375490971,4.33968E-06,-0.000380783,,,0.4671114,0.62601873,-24.69837057,-60.44213074,0.274212697
0.325070931,3.623856051,9.4662E-06,-0.002944752,,,0.467566101,1.033379456,-21.09005918,-53.32049508,0.197471474
0.359649156,2.497604187,1.44473E-05,-0.002217532,,,0.467921023,2.964311655,-7.23183679,-18.73290143,-0.051548457
0.359649156,2.497604187,1.44473E-05,-0.002217532,,,0.467988572,0.970270085,-21.63785299,-54.42826375,0.210285078
0.360514995,1.501143268,1.38967E-05,-0.001313941,,,0.468863199,3.027414286,-6.759073909,-17.58994626,-0.053192729
0.360514995,1.501143268,1.38967E-05,-0.001313941,,,0.470542875,3.372184566,-4.177439508,-11.34370674,-0.051737422
0.363863209,0.500981942,6.45884E-06,-0.000500408,,,0.473320234,0.031544507,-30.24382237,-70.73016116,0.355279801
0.363863209,0.500981942,6.45884E-06,-0.000500408,,,0.473862383,2.031544507,-14.32442532,-35.57058049,0.006498498
0.367116195,3.497712103,1.10593E-05,-0.002906068,,,0.473862383,1.968455493,-13.43581918,-36.70437549,0.014155953
0.367116195,3.497712103,1.10593E-05,-0.002906068,,,0.479661253,2.523335541,-10.553392,-26.70933308,-0.029982106
0.38516901,2.747041797,1.47209E-05,-0.002452654,,,0.480727398,1.474966135,-17.36834772,-45.51974424,0.110399131
0.385262545,1.251355096,1.36288E-05,-0.001134483,,,0.484640483,2.814523291,-8.35512804,-21.44502008,-0.047646059
0.386936652,0.751274433,9.65533E-06,-0.000727503,,,0.484745875,1.183455733,-19.80015134,-50.67812267,0.173262002
0.38890253,3.247095755,1.27282E-05,-0.00279719,,,0.48498969,0.527905817,-25.58922768,-62.14573438,0.301898928
0.40625,0.125,1.94851E-06,-0.000130513,,,0.486655048,2.470377593,-10.95509342,-27.66552496,-0.026630584
0.40625,0,0,0,,,0.486824128,0.819858097,-22.95652058,-57.06011157,0.249413413
0.40625,0.125,1.94851E-06,-0.000130513,,,0.487757266,1.528027911,-16.93319764,-44.57645862,0.100943249
0.406715325,2,1.67783E-05,-0.001623577,,,0.489166831,3.470327868,-3.441409805,-9.566529062,-0.049797905
0.406715325,2.125,1.68359E-05,-0.001788378,,,0.489275311,3.178087775,-5.631238377,-14.86043142,-0.057089842
0.406715325,2.125,1.68359E-05,-0.001788378,,,0.491986585,0.474677493,-26.07695375,-63.06873173,0.315137725
0.406715325,2,1.67783E-05,-0.001623577,,,0.494628093,3.968455493,0.343180542,-0.567937113,-0.00422604
0.406715325,1.875,1.6681E-05,-0.001552155,,,0.495860228,2.372953979,-11.69656974,-29.42329813,-0.019680345
0.406715325,1.875,1.6681E-05,-0.001552155,,,0.496728538,1.625789902,-16.13942871,-42.83561878,0.082275608
0.410010096,1.001566924,1.26548E-05,-0.000939055,,,0.497423577,3.52366002,-3.040787762,-8.601130626,-0.047713951
0.410010096,1.001566924,1.26548E-05,-0.000939055,,,0.499931638,0.376341371,-26.98589654,-64.7718962,0.335765206
0.410010096,1.001566924,1.26548E-05,-0.000939055,,,0.509272679,3.622348948,-2.297582826,-6.815581818,-0.041978701
0.410010096,1.001566924,1.26548E-05,-0.000939055,,,0.519231777,0.063212914,-29.93726943,-70.17713267,0.387879689
0.410010096,1.001566924,1.26548E-05,-0.000939055,,,0.519242205,2.062786716,-14.07893335,-35.00840709,0.005073316
0.410010096,1.001566924,1.26548E-05,-0.000939055,,,0.519351455,1.937055241,-13.67152604,-37.26744835,0.021965972
0.410688865,2.996479407,1.46255E-05,-0.00264573,,,0.538276838,2.840451252,-8.157862486,-20.97665088,-0.05418392
0.410688865,2.996479407,1.46255E-05,-0.00264573,,,0.538490857,1.157154018,-20.01190869,-51.13802752,0.199372616
0.410688865,2.996479407,1.46255E-05,-0.00264573,,,0.540569109,0.846701431,-22.70751082,-56.58590128,0.271773227
0.410688865,2.996479407,1.46255E-05,-0.00264573,,,0.540950091,3.936622303,0.091780967,-1.141392385,-0.009178105
0.410688865,2.996479407,1.46255E-05,-0.00264573,,,0.542911666,3.150870687,-5.83469692,-15.35441499,-0.063456134
0.410688865,2.996479407,1.46255E-05,-0.00264573,,,0.568403089,2.180261658,-13.1675946,-32.89481882,-0.004444948
0.424538501,4,1.18172E-05,-0.002996701,,,0.56894052,1.818960881,-14.58547056,-39.38295376,0.05036084
0.424538501,3.875,1.18205E-05,-0.002990022,,,0.570623864,0.182358247,-28.79755415,-68.11408045,0.413759998
0.424538501,3.875,1.18205E-05,-0.002990022,,,0.585293469,2.651033719,-9.579672704,-24.40364191,-0.04637185
0.450968128,2.248802093,1.86293E-05,-0.001941318,,,0.586185029,1.346765459,-18.40294089,-47.78687652,0.16890342
0.451401048,1.750571634,1.83031E-05,-0.001476932,,,0.586282418,2.031242208,-14.31765792,-35.57463144,0.009363505
0.452764938,0.250490971,4.25836E-06,-0.000257746,,,0.586391668,1.968599748,-13.41294591,-36.69998175,0.018822835
0.462321372,2.621724039,1.82069E-05,-0.002339848,,,0.587578209,0.031668407,-30.23308267,-70.708475,0.443511628
0.463017519,1.376534999,1.72334E-05,-0.001226379,,,0.588163911,3.81683114,-0.831148074,-3.301757826,-0.027093578
0.466365732,0.626373673,1.00639E-05,-0.000616042,,,0.590447321,0.656912542,-24.39437581,-59.89067719,0.341859772
0.466583765,3.748856051,1.31634E-05,-0.002972708,,,0.594799047,3.340818645,-4.416337273,-11.91337987,-0.06710386
0.469788411,3.371831955,1.47179E-05,-0.002856841,,,0.610164308,3.96816681,0.323813888,-0.573137774,-0.005349431
0.487765069,1.126746827,1.62847E-05,-0.001038907,,,0.612853171,2.967167887,-7.205620018,-18.68372423,-0.067729189
0.487765069,1.126746827,1.62847E-05,-0.001038907,,,0.613147512,1.029272847,-21.0917201,-53.38050606,0.262345865
0.487841227,2.871161649,1.80698E-05,-0.002554104,,,0.613503394,0.97611065,-21.55347211,-54.3130681,0.276497192
0.487841227,2.871161649,1.80698E-05,-0.002554104,,,0.613646843,3.020324407,-6.808512277,-17.72090588,-0.069648837
0.489439176,0.876666164,1.37848E-05,-0.00083537,,,0.624876558,2.153689133,-13.36700533,-33.37264671,-0.001522417
0.489439176,0.876666164,1.37848E-05,-0.00083537,,,0.625413989,1.845533406,-14.36346237,-38.90564438,0.049708841
0.491574746,3.121215607,1.68081E-05,-0.002726579,,,0.626135304,2.341773892,-11.92312647,-29.98606031,-0.020560336
0.491574746,3.121215607,1.68081E-05,-0.002726579,,,0.627237522,1.656631611,-15.86094255,-42.28059866,0.097729913
0.495220931,2.372604187,2.02864E-05,-0.002084005,,,0.628197668,0.155785722,-29.0423416,-68.56215815,0.460588904
0.49608677,1.626143268,1.97431E-05,-0.001397617,,,0.631307261,0.346073792,-27.24637007,-65.27621371,0.432391735
0.499279875,0.375981942,6.87856E-06,-0.000381161,,,0.636833122,2.869373377,-7.935875458,-20.45498876,-0.065681255
0.508629028,3.622712103,1.47269E-05,-0.0029447,,,0.637433987,1.127269355,-20.24162654,-51.65597519,0.24607779
0.539473734,2.49640628,2.17766E-05,-0.002216417,,,0.638929824,2.676961681,-9.380013231,-23.93585312,-0.052502226
0.539473734,2.49640628,2.17766E-05,-0.002216417,,,0.639103317,0.877902178,-22.40790437,-56.0298079,0.314933272
0.540772493,1.501714902,2.09536E-05,-0.001314239,,,0.639930011,1.320463743,-18.60773834,-48.24830375,0.192737247
0.540772493,1.501714902,2.09536E-05,-0.001314239,,,0.64055599,3.118713926,-6.073905432,-15.93881695,-0.074920224
0.541666667,0,0,0,,,0.64301617,3.652263721,-2.084298822,-6.275292127,-0.050603294
0.541666667,0,0,0,,,0.644192303,0.683755876,-24.13920861,-59.41640974,0.367548095
0.541666667,0,0,0,,,0.646468721,3.843403665,-0.636929028,-2.82226844,-0.02607411
0.542287101,2,2.24448E-05,-0.001623569,,,0.648435402,3.313601557,-4.621152521,-12.40728882,-0.07433846
0.542287101,2,2.24448E-05,-0.001623569,,,0.654448624,2.527135368,-10.51012642,-26.64279197,-0.040094708
0.542287101,2,2.24448E-05,-0.001623569,,,0.65591898,1.470552374,-17.36137338,-45.58870373,0.154771455
0.542287101,2,2.24448E-05,-0.001623569,,,0.661770465,0.533359448,-25.50421506,-62.02747517,0.414352738
0.542287101,2,2.24448E-05,-0.001623569,,,0.662751027,2.464268465,-10.98614566,-27.77746901,-0.03422195
0.542287101,2,2.24448E-05,-0.001623569,,,0.664264206,1.533542532,-16.84466339,-44.46958423,0.1388295
0.545794813,0.501472913,9.76179E-06,-0.00050074,,,0.66749835,3.464234952,-3.497431841,-9.678618031,-0.06943241
0.545794813,0.501472913,9.76179E-06,-0.00050074,,,0.670076548,0.470171578,-26.08445789,-63.12169765,0.434090792
0.550674292,3.496568154,1.65215E-05,-0.002905959,,,0.677300015,3.527546077,-3.02444262,-8.532317111,-0.065782475
0.550674292,3.496568154,1.65215E-05,-0.002905959,,,0.682608773,2.315201368,-12.12024849,-30.46500469,-0.018764911
0.5603278,2.994327462,2.00082E-05,-0.002644468,,,0.683710991,1.683204136,-15.63289865,-41.80410682,0.100056151
0.5603278,2.994327462,2.00082E-05,-0.002644468,,,0.688881065,0.319501267,-27.48446856,-65.72515582,0.478610895
0.560329715,1.00244911,1.73946E-05,-0.000939642,,,0.701320981,3.678836246,-1.890893926,-5.795138448,-0.052360324
0.560329715,1.00244911,1.73946E-05,-0.000939642,,,0.713183741,2.026317874,-14.34317737,-35.6609072,0.014157895
0.564993588,2.745843891,2.16894E-05,-0.002451823,,,0.713275772,1.973548993,-13.34452023,-36.60835839,0.023892265
0.564993588,2.745843891,2.16894E-05,-0.002451823,,,0.714645835,2.742983017,-8.877495028,-22.74348725,-0.064144515
0.565520043,1.25192673,2.0125E-05,-0.001134777,,,0.71585447,1.25352068,-19.14653368,-49.42416433,0.238412864
0.565520043,1.25192673,2.0125E-05,-0.001134777,,,0.716127978,2.123448884,-13.59057061,-33.91554309,0.003275776
0.566051334,4,1.55925E-05,-0.002996813,,,0.716559662,1.87592663,-14.10191253,-38.35843516,0.050301604
0.566051334,4,1.55925E-05,-0.002996813,,,0.718120872,2.557914708,-10.27076296,-26.0879557,-0.046687976
0.566051334,4,1.55925E-05,-0.002996813,,,0.719212236,0.751932385,-23.50605575,-58.21824402,0.393163208
0.568868256,0.751765404,1.42963E-05,-0.000727775,,,0.719662399,0.026676896,-30.26743594,-70.76600987,0.548078645
0.568868256,0.751765404,1.42963E-05,-0.000727775,,,0.71972018,1.439329347,-17.5986865,-46.13797276,0.181016027
0.572460627,3.245951806,1.87327E-05,-0.002796905,,,0.722134178,3.24451775,-5.137298256,-13.6604949,-0.084867184
0.572460627,3.245951806,1.87327E-05,-0.002796905,,,0.723079217,0.125132943,-29.32128765,-69.07061255,0.537832143
0.586539903,2.123802093,2.44005E-05,-0.001786858,,,0.725571664,0.565225436,-25.19643081,-61.46408411,0.447916747
0.586539903,2.123802093,2.44005E-05,-0.001786858,,,0.729791241,2.432723957,-11.21857836,-28.34709868,-0.033287056
0.586972823,1.875571634,2.41919E-05,-0.00155245,,,0.731170597,3.431925278,-3.742790727,-10.26468001,-0.078743826
0.586972823,1.875571634,2.41919E-05,-0.00155245,,,0.73130442,1.56508704,-16.56863304,-43.90466954,0.144453465
0.588181604,0.125490971,2.85503E-06,-0.000130969,,,0.738422981,0.438627071,-26.36112504,-63.65582194,0.487965352
0.588181604,0.125490971,2.85503E-06,-0.000130969,,,0.739797938,3.973184294,0.338433951,-0.482797224,-0.005558531
0.608096598,3.873856051,1.6726E-05,-0.00299012,,,0.74035711,3.874215942,-0.417923658,-2.266506758,-0.024774576
0.608096598,3.873856051,1.6726E-05,-0.00299012,,,0.746514232,3.559090585,-2.794665187,-7.961947678,-0.070045566
0.630792706,2.247604187,2.62076E-05,-0.001939925,,,0.760759543,2.248310606,-12.62357696,-31.66927471,-0.011245843
0.630792706,2.247604187,2.62076E-05,-0.001939925,,,0.761627852,1.750433275,-15.07529019,-40.60054917,0.092290332
0.631658546,1.751143268,2.57563E-05,-0.00147721,,,0.769992278,0.251697999,-28.10805327,-66.87874844,0.551823073
0.631658546,1.751143268,2.57563E-05,-0.00147721,,,0.773646959,2.525706795,-10.50812454,-26.67007247,-0.045965855
0.634696542,0.250981942,6.03176E-06,-0.000258138,,,0.775870153,1.471221991,-17.31857846,-45.56804087,0.185823053
0.634696542,0.250981942,6.03176E-06,-0.000258138,,,0.777014925,2.463382948,-10.98001004,-27.79455993,-0.038574783
0.637480162,2.869009703,2.37066E-05,-0.002552653,,,0.779109168,1.533989525,-16.8053946,-44.45384506,0.165526076
0.638084688,1.127629013,2.14374E-05,-0.001039445,,,0.782762242,3.74699232,-1.388870204,-4.563515385,-0.048863645
0.639758795,0.87754835,1.81438E-05,-0.000835955,,,0.782988049,0.533891808,-25.46882475,-61.99708888,0.493855866
0.641213682,3.119063661,2.19646E-05,-0.002725546,,,0.787533282,0.470481313,-26.05329873,-63.09473903,0.513884097
0.64214595,2.620526132,2.54325E-05,-0.002338888,,,0.787752826,2.867203013,-7.942313789,-20.49756529,-0.080858105
0.64214595,2.620526132,2.54325E-05,-0.002338888,,,0.788688531,3.462896011,-3.516145024,-9.704400619,-0.083201548
0.643275017,1.377106633,2.41007E-05,-0.001226641,,,0.7890402,1.128159092,-20.18669209,-51.62403765,0.308338202
0.643275017,1.377106633,2.41007E-05,-0.001226641,,,0.790709531,0.878791914,-22.35500891,-55.99395484,0.39360856
0.648297337,0.626864644,1.41098E-05,-0.000616308,,,0.791475694,3.116543562,-6.087695426,-15.98130652,-0.093204268
0.648297337,0.626864644,1.41098E-05,-0.000616308,,,0.79288279,2.674747695,-9.382311027,-23.97867289,-0.063873361
0.650141862,3.747712103,1.81483E-05,-0.002972771,,,0.794230501,3.526750192,-3.040856472,-8.547943078,-0.078269584
0.650141862,3.747712103,1.81483E-05,-0.002972771,,,0.794583285,1.321371363,-18.55129948,-48.21857738,0.243044721
0.653346509,3.370688006,2.04178E-05,-0.002856691,,,0.798845577,0.684663495,-24.08824023,-59.37633947,0.460155709
0.653346509,3.370688006,2.04178E-05,-0.002856691,,,0.802388369,3.311387572,-4.642506302,-12.45005773,-0.093256885
0.672372565,2,2.79408E-05,-0.001623542,,,0.808072155,2.964360458,-7.217364022,-18.73889107,-0.089377187
0.672372565,2,2.79408E-05,-0.001623542,,,0.808865827,3.017516978,-6.82228241,-17.77603123,-0.092117499
0.675045509,2.37140628,2.78294E-05,-0.002082749,,,0.809254516,1.030423747,-21.02156837,-53.33731746,0.351307747
0.675045509,2.37140628,2.78294E-05,-0.002082749,,,0.809610398,0.97726155,-21.48387417,-54.26880948,0.369964465
0.676344268,1.626714902,2.70888E-05,-0.001397874,,,0.81644455,2.315201368,-12.10369179,-30.46503533,-0.020066186
0.676344268,1.626714902,2.70888E-05,-0.001397874,,,0.817546768,1.683204136,-15.59126163,-41.79651826,0.123166026
0.677083333,0,0,0,,,0.82820174,0.319501267,-27.45458762,-65.69554246,0.580612347
0.681211479,0.376472913,9.4803E-06,-0.000381492,,,0.837907609,3.678836246,-1.909648928,-5.795899597,-0.063763171
0.681211479,0.376472913,9.4803E-06,-0.000381492,,,0.839656966,2.647616329,-9.581018068,-24.46979728,-0.064107178
0.692187126,3.621568154,1.98734E-05,-0.00294472,,,0.841883011,1.348237152,-18.31036151,-47.73895033,0.24904479
0.692187126,3.621568154,1.98734E-05,-0.00294472,,,0.847212106,0.658268611,-24.31238469,-59.82612668,0.498318532
0.698810567,4,1.9005E-05,-0.002996923,,,0.847326851,2.123448884,-13.573866,-33.91336491,0.007033702
0.709966736,2.992175516,2.54382E-05,-0.002643242,,,0.847758536,1.87592663,-14.06241299,-38.35309103,0.063083705
0.709966736,2.992175516,2.54382E-05,-0.002643242,,,0.85084044,3.33747676,-4.450973508,-11.97807877,-0.098308865
0.710649333,1.003331296,2.22229E-05,-0.000940175,,,0.856224931,2.341027949,-11.90078293,-29.99994984,-0.023915597
0.710649333,1.003331296,2.22229E-05,-0.000940175,,,0.857816626,1.657008149,-15.78639192,-42.26034811,0.139867542
0.714632524,2.743691945,2.75781E-05,-0.002450161,,,0.859654922,0.125132943,-29.29895205,-69.03612232,0.645484754
0.715839662,1.252808916,2.56465E-05,-0.00113527,,,0.869571374,0.346334707,-27.19163118,-65.22239106,0.604657278
0.716625368,2.123802093,2.99525E-05,-0.001786843,,,0.874252637,3.874215942,-0.44481204,-2.266690665,-0.029930669
0.717058288,1.875571634,2.96883E-05,-0.001552391,,,0.878102935,3.651593282,-2.119569805,-6.289023197,-0.071425428
0.719187875,0.75264759,1.82222E-05,-0.000728362,,,0.882893264,2.026317874,-14.3220188,-35.65632406,0.02222744
0.719298311,2.495208374,2.92336E-05,-0.002215305,,,0.882985294,1.973548993,-13.29494912,-36.60288932,0.034355741
0.719298311,2.495208374,2.92336E-05,-0.002215305,,,0.887448789,2.835429838,-8.170855183,-21.07496395,-0.087971798
0.719298311,2.495208374,2.92336E-05,-0.002215305,,,0.889251135,1.159212538,-19.88444124,-51.06486273,0.338933836
0.719298311,2.495208374,2.92336E-05,-0.002215305,,,0.891329387,0.848759951,-22.58593969,-56.50142082,0.458571016
0.719298311,2.495208374,2.92336E-05,-0.002215305,,,0.892083616,3.145849273,-5.8688682,-15.45254673,-0.106162168
0.719298311,2.495208374,2.92336E-05,-0.002215305,,,0.896327008,0.026676896,-30.2444241,-70.71748735,0.691444474
0.721029991,1.502286536,2.81384E-05,-0.001314472,,,0.912078126,2.518521977,-10.54427743,-26.80136826,-0.050993179
0.721029991,1.502286536,2.81384E-05,-0.001314472,,,0.912995658,3.973184294,0.298169508,-0.482811979,-0.007085633
0.721029991,1.502286536,2.81384E-05,-0.001314472,,,0.91491524,2.46602149,-10.94117312,-27.7481092,-0.043316054
0.721029991,1.502286536,2.81384E-05,-0.001314472,,,0.916147384,1.47735255,-17.21676089,-45.44622693,0.221912254
0.721029991,1.502286536,2.81384E-05,-0.001314472,,,0.918875871,1.530226791,-16.78482313,-44.50844808,0.201602642
0.721029991,1.502286536,2.81384E-05,-0.001314472,,,0.926639507,0.529617021,-25.46531054,-62.04019587,0.592058961
0.722099563,3.243799861,2.36352E-05,-0.00279609,,,0.928421857,2.153689133,-13.32824639,-33.36837528,0.005508535
0.723598271,0.125490971,3.54008E-06,-0.000130919,,,0.928959288,1.845533406,-14.27134774,-38.89232931,0.082924011
0.727726417,0.501963885,1.31481E-05,-0.000501012,,,0.93046833,0.476201162,-25.95919995,-62.96358011,0.611761432
0.727726417,0.501963885,1.31481E-05,-0.000501012,,,0.931382154,3.465955228,-3.505473214,-9.651045659,-0.099669054
0.727726417,0.501963885,1.31481E-05,-0.000501012,,,0.93404881,2.615718296,-9.808701265,-25.04755406,-0.06582194
0.727726417,0.501963885,1.31481E-05,-0.000501012,,,0.934222965,2.808298472,-8.368212561,-21.56696562,-0.089592033
0.727726417,0.501963885,1.31481E-05,-0.000501012,,,0.936050609,3.51974484,-3.107750277,-8.676606935,-0.09475484
0.727726417,0.501963885,1.31481E-05,-0.000501012,,,0.936550861,1.186078327,-19.6366565,-50.58556349,0.347811508
0.73423239,3.495424205,2.19007E-05,-0.002905922,,,0.937722639,1.379539663,-18.01295423,-47.17468892,0.26817414
0.73423239,3.495424205,2.19007E-05,-0.002905922,,,0.939695916,0.822365066,-22.80255091,-56.95235349,0.495745856
0.73423239,3.495424205,2.19007E-05,-0.002905922,,,0.940535688,3.171938461,-5.675620024,-14.98087125,-0.112620394
0.73423239,3.495424205,2.19007E-05,-0.002905922,,,0.944182953,0.155785722,-28.98761404,-68.4842189,0.707344188
0.73423239,3.495424205,2.19007E-05,-0.002905922,,,0.946084439,0.628122268,-24.55361816,-60.32841415,0.571631738
0.73423239,3.495424205,2.19007E-05,-0.002905922,,,0.947356822,2.369454994,-11.66999438,-29.48797863,-0.028790334
0.740855831,3.873856051,2.01371E-05,-0.002990285,,,0.949407636,3.36689394,-4.238483347,-11.446759,-0.109306382
0.760878171,2.247604187,3.17799E-05,-0.00193993,,,0.950521117,1.627556125,-15.98692406,-42.77670964,0.170290727
0.76174401,1.751143268,3.12196E-05,-0.001477115,,,0.953189889,2.957333042,-7.260121288,-18.86985038,-0.104996738
0.770113209,0.250981942,7.37815E-06,-0.00025804,,,0.954132065,3.020435673,-6.793387011,-17.72687689,-0.109216338
0.782901095,3.747712103,2.16313E-05,-0.002972986,,,0.955042377,1.036240325,-20.91547303,-53.2125435,0.418145369
0.787119098,2.866857758,2.94178E-05,-0.002551215,,,0.955464848,0.973130955,-21.46488979,-54.31712106,0.444334673
0.788404307,1.128511199,2.66933E-05,-0.001039925,,,0.956253071,3.843403665,-0.696218816,-2.822843482,-0.040575729
0.790078414,0.878430536,2.25978E-05,-0.000836482,,,0.964044243,0.37756524,-26.87163938,-64.65866223,0.666138482
0.790852617,3.116911716,2.71515E-05,-0.002724542,,,0.968202238,2.179515714,-13.12252142,-32.90355438,0.002841003
0.791784885,2.618374187,3.156E-05,-0.002336994,,,0.969229147,1.81933742,-14.46094949,-39.3577424,0.098112697
0.791784885,2.618374187,3.156E-05,-0.002336994,,,0.971305896,3.619204128,-2.374914029,-6.875982317,-0.08540083
0.793594636,1.377988819,2.99456E-05,-0.00122709,,,0.985552587,0.182619161,-28.72036251,-68.00991705,0.73473984
0.793594636,1.377988819,2.99456E-05,-0.00122709,,,0.996448396,3.816160701,-0.910370263,-3.314747155,-0.049140353
0.798616956,0.627746831,1.75477E-05,-0.000616905,,,1.007155801,2.739938292,-8.868931847,-22.80477698,-0.087522744
0.798616956,0.627746831,1.75477E-05,-0.000616905,,,1.008140712,2.031242208,-14.26484784,-35.5631032,0.029415306
0.80245803,2,3.35085E-05,-0.001623484,,,1.008249962,1.968599748,-13.28939289,-36.68575702,0.046025939
0.80245803,2,3.35085E-05,-0.001623484,,,1.008715976,2.925125129,-7.493944085,-19.45459646,-0.108363897
0.802985444,3.36853606,2.50396E-05,-0.002856078,,,1.010908369,1.254178075,-19.02846626,-49.37577853,0.348487045
0.802985444,3.36853606,2.50396E-05,-0.002856078,,,1.01119235,1.068132969,-20.61543076,-52.64365004,0.431419854
0.805130973,2.37140628,3.33835E-05,-0.002082782,,,1.011649999,3.051406407,-6.561731384,-17.16732078,-0.117725324
0.805130973,2.37140628,3.33835E-05,-0.002082782,,,1.012881233,0.941797327,-21.71547006,-54.85365189,0.487408956
0.806429733,1.626714902,3.24822E-05,-0.001397742,,,1.017581734,0.754981797,-23.37555474,-58.10836283,0.568541843
0.806429733,1.626714902,3.24822E-05,-0.001397742,,,1.018749152,3.238919752,-5.182662497,-13.76846359,-0.122708069
0.8125,0,0,0,,,1.026725227,0.031668407,-30.17481124,-70.58772305,0.799947093
0.816628146,0.376472913,1.14596E-05,-0.000381349,,,1.033924131,2.244593271,-12.61031926,-31.73294846,-0.006203488
0.816628146,0.376472913,1.14596E-05,-0.000381349,,,1.0366518,1.753049481,-14.95412708,-40.53497599,0.135652545
0.824946359,3.621568154,2.34942E-05,-0.002944976,,,1.040693449,3.96816681,0.223992776,-0.573168618,-0.009848472
0.824946359,3.621568154,2.34942E-05,-0.002944976,,,1.053706887,0.251000184,-28.04696168,-66.81165837,0.771974135
0.8315698,4,2.2259E-05,-0.002997017,,,1.055364396,2.061901199,-14.0183684,-35.01130791,0.027619457
0.846710833,2.123802093,3.55892E-05,-0.001786794,,,1.056054709,1.937502233,-13.51008838,-37.23967864,0.062672329
0.847143752,1.875571634,3.5265E-05,-0.001552292,,,1.062796291,3.74642775,-1.446713446,-4.575045246,-0.069738107
0.859014938,0.125490971,4.24216E-06,-0.000130856,,,1.062809198,2.954971433,-7.268738508,-18.91560484,-0.116798964
0.859605671,2.99002357,3.09295E-05,-0.002642025,,,1.064801044,3.018150079,-6.803287099,-17.7712976,-0.122008321
0.859605671,2.99002357,3.09295E-05,-0.002642025,,,1.065942788,1.037254089,-20.85803661,-53.17362474,0.472064672
0.860968952,1.004213482,2.71612E-05,-0.000940643,,,1.067209199,0.974027817,-21.40861281,-54.27902925,0.501832743
0.860968952,1.004213482,2.71612E-05,-0.000940643,,,1.075835529,0.063522648,-29.85442252,-70.02312574,0.835793379
0.862176677,2.492897284,3.52869E-05,-0.002212997,,,1.07815008,2.613387425,-9.804142777,-25.09178048,-0.072880654
0.862176677,2.492897284,3.52869E-05,-0.002212997,,,1.081220457,2.805920754,-8.368506992,-21.61349902,-0.102154294
0.864271459,2.741539999,3.35686E-05,-0.002448489,,,1.083709545,1.380749573,-17.93791857,-47.13292726,0.316851538
0.864271459,2.741539999,3.35686E-05,-0.002448489,,,1.085471889,1.187312554,-19.55969128,-50.538761,0.410360553
0.865777991,1.503486178,3.40342E-05,-0.001315103,,,1.088409718,3.935826418,-0.035248123,-1.155904189,-0.02058777
0.865777991,1.503486178,3.40342E-05,-0.001315103,,,1.091458092,2.367124123,-11.66221005,-29.5290976,-0.028012129
0.866159281,1.253691102,3.1285E-05,-0.001135698,,,1.091812579,3.169870649,-5.688734598,-15.02228383,-0.13206338
0.866159281,1.253691102,3.1285E-05,-0.001135698,,,1.092057602,0.823122696,-22.73226672,-56.90484973,0.584331163
0.869507494,0.753529777,2.22462E-05,-0.00072889,,,1.095444215,0.62886497,-24.48961335,-60.27706644,0.670395034
0.869507494,0.753529777,2.22462E-05,-0.00072889,,,1.096508023,1.628766036,-15.91401768,-42.73980752,0.203337554
0.871738498,3.241647915,2.85413E-05,-0.002795293,,,1.09770399,3.364866869,-4.262216635,-11.48661416,-0.128713517
0.871738498,3.241647915,2.85413E-05,-0.002795293,,,1.098477269,2.515506928,-10.53634909,-26.85721488,-0.056259328
0.873615064,3.873856051,2.34021E-05,-0.002990441,,,1.101314383,2.463006442,-10.9323802,-27.80313811,-0.046472891
0.875818663,0.502700284,1.59927E-05,-0.000501498,,,1.104985652,1.478917605,-17.12079324,-45.39486237,0.276669228
0.875818663,0.502700284,1.59927E-05,-0.000501498,,,1.10771414,1.531791845,-16.68943423,-44.45840097,0.252064575
0.881270238,3.493414337,2.61415E-05,-0.00290553,,,1.108524168,2.030658991,-14.25214571,-35.56841175,0.037362239
0.881270238,3.493414337,2.61415E-05,-0.00290553,,,1.109105231,1.968902485,-13.24759024,-36.67425424,0.055579083
0.890963635,2.247604187,3.74478E-05,-0.001939899,,,1.113404019,0.378307942,-26.81671629,-64.60011159,0.779014201
0.890963635,2.247604187,3.74478E-05,-0.001939899,,,1.115199731,2.177137996,-13.11431641,-32.94195359,0.010080886
0.891829475,1.751143268,3.67711E-05,-0.001476974,,,1.118150174,1.820571648,-14.38957643,-39.32372422,0.120313427
0.891829475,1.751143268,3.67711E-05,-0.001476974,,,1.119602249,3.617177057,-2.414601619,-6.914210235,-0.101289943
0.905529875,0.250981942,8.75853E-06,-0.000257918,,,1.119840679,0.530577728,-25.38681637,-61.97051438,0.727182567
0.905529875,0.250981942,8.75853E-06,-0.000257918,,,1.123207758,3.463333153,-3.543894453,-9.701834078,-0.123725686
0.915660327,3.747712103,2.49874E-05,-0.002973196,,,1.123669502,0.477161869,-25.88317081,-62.89191881,0.750749978
0.915660327,3.747712103,2.49874E-05,-0.002973196,,,1.126787613,2.831062743,-8.176356764,-21.15987486,-0.109393856
0.932543495,2,3.91613E-05,-0.00162338,,,1.127876214,3.517122765,-3.150605529,-8.726928266,-0.117817108
0.932543495,2,3.91613E-05,-0.00162338,,,1.131592671,1.161300742,-19.75872044,-50.98629761,0.443602209
0.934663251,2.616063096,3.75315E-05,-0.002334911,,,1.132443635,0.031854242,-30.15316703,-70.54316796,0.891038795
0.936758033,2.864705812,3.52232E-05,-0.002549763,,,1.136586063,3.141856117,-5.892631351,-15.53143925,-0.137164294
0.936758033,2.864705812,3.52232E-05,-0.002549763,,,1.137822503,0.85027308,-22.46885482,-56.4205165,0.598972675
0.938342636,1.379188462,3.57006E-05,-0.001227704,,,1.137914273,0.183376791,-28.67431609,-67.94320952,0.859644904
0.938723926,1.129393385,3.20745E-05,-0.001040332,,,1.142732154,3.967659608,0.187255043,-0.58232775,-0.011253594
0.938723926,1.129393385,3.20745E-05,-0.001040332,,,1.147725287,3.814092889,-0.964513333,-3.352615153,-0.058949089
0.940398033,0.879312723,2.71665E-05,-0.000836942,,,1.159980565,2.150820123,-13.30878968,-33.4122032,0.018148624
0.940398033,0.879312723,2.71665E-05,-0.000836942,,,1.162838978,1.847022655,-14.16367997,-38.84767604,0.115614174
0.940491553,3.11475977,3.23778E-05,-0.002723537,,,1.173053602,2.642223563,-9.571702001,-24.57260031,-0.082331885
0.940491553,3.11475977,3.23778E-05,-0.002723537,,,1.179642308,1.351036434,-18.13633721,-47.64045003,0.366504083
0.946709201,0.62848323,2.10261E-05,-0.000617317,,,1.185599923,0.156699895,-28.92003995,-68.38180241,0.907295741
0.947916667,0,0,0,,,1.189621566,2.335635183,-11.88212715,-30.09373073,-0.019598329
0.948009339,2.36909519,3.96128E-05,-0.002080199,,,1.192774964,0.659986947,-24.1621025,-59.70867028,0.722812122
0.950023292,3.366526192,2.95468E-05,-0.002855524,,,1.193485529,3.840908595,-0.778277828,-2.868381445,-0.053970457
0.951177733,1.627914544,3.86049E-05,-0.001398316,,,1.193942936,3.332786872,-4.501648907,-12.07060134,-0.143494681
0.964329032,4,2.53196E-05,-0.002997074,,,1.195575923,1.659807432,-15.61851938,-42.17589317,0.212345726
0.964720392,0.377209313,1.37067E-05,-0.000381866,,,1.200322603,2.95512076,-7.254139596,-18.91668679,-0.131604111
0.971984207,3.619558285,2.74036E-05,-0.002944718,,,1.202000499,3.008341314,-6.864399189,-17.95290998,-0.137087599
0.976796297,2.123802093,4.13263E-05,-0.001786692,,,1.205883526,1.034176505,-20.81567503,-53.19526024,0.545076363
0.976796297,2.123802093,4.13263E-05,-0.001786692,,,1.206950328,0.980915832,-21.27997503,-54.12514526,0.573472731
0.977229217,1.875571634,4.0936E-05,-0.001552139,,,1.215134232,0.348053042,-27.06760775,-65.0841048,0.869762862
0.977229217,1.875571634,4.0936E-05,-0.001552139,,,1.218620758,2.667365551,-9.375663728,-24.11942159,-0.089176866
0.994431604,0.125490971,4.96423E-06,-0.00013078,,,1.220897025,2.857871468,-7.965607506,-20.67723935,-0.121390756
0.994431604,0.125490971,4.96423E-06,-0.00013078,,,1.221205431,3.646903394,-2.216131394,-6.377030647,-0.106440224
1.005055042,2.490586194,4.14765E-05,-0.002210631,,,1.22576309,1.325024621,-18.32823648,-48.08944542,0.398225588
1.005055042,2.490586194,4.14765E-05,-0.002210631,,,1.227246481,1.132164827,-19.95819915,-51.47553985,0.503622447
1.006374296,3.873856051,2.64914E-05,-0.002990563,,,1.228767508,3.107512379,-6.139146611,-16.1566504,-0.147485944
1.006374296,3.873856051,2.64914E-05,-0.002990563,,,1.229709975,2.025826582,-14.26648501,-35.64688462,0.049936854
1.007149825,2.739228909,3.94091E-05,-0.002446632,,,1.230199453,1.973804013,-13.1576495,-36.57732926,0.067102879
1.009244607,2.987871625,3.64987E-05,-0.002640784,,,1.232250516,0.882335727,-22.13672264,-55.83623487,0.639100253
1.009244607,2.987871625,3.64987E-05,-0.002640784,,,1.234402401,2.309317309,-12.07315846,-30.56535653,-0.012104558
1.009244607,2.987871625,3.64987E-05,-0.002640784,,,1.236991757,2.518212087,-10.48813395,-26.80862876,-0.059139496
1.009244607,2.987871625,3.64987E-05,-0.002640784,,,1.238539865,0.687137331,-23.89229132,-59.22354866,0.741114741
1.009244607,2.987871625,3.64987E-05,-0.002640784,,,1.23871642,3.304772341,-4.706869761,-12.57981366,-0.150857529
1.009244607,2.987871625,3.64987E-05,-0.002640784,,,1.240264727,1.686258438,-15.38578742,-41.69994126,0.209701847
1.010525991,1.504685821,4.00612E-05,-0.001315658,,,1.240359724,2.45588824,-10.95738736,-27.93053607,-0.045343506
1.010525991,1.504685821,4.00612E-05,-0.001315658,,,1.243976967,2.121144387,-13.52094775,-33.93955984,0.031075324
1.010907281,1.254890745,3.68517E-05,-0.001136294,,,1.245278049,1.47511235,-17.07981933,-45.43897051,0.323642365
1.011288571,1.005095669,3.22303E-05,-0.000941035,,,1.246272952,1.877122851,-13.89141019,-38.30223333,0.114923573
1.011288571,1.005095669,3.22303E-05,-0.000941035,,,1.248517064,1.537879884,-16.568371,-44.32873014,0.290620534
1.011288571,1.005095669,3.22303E-05,-0.000941035,,,1.262819882,0.321376147,-27.30472779,-65.52346692,0.91832115
1.011288571,1.005095669,3.22303E-05,-0.000941035,,,1.263241105,0.5362799,-25.27292215,-61.82309708,0.829386019
1.011288571,1.005095669,3.22303E-05,-0.000941035,,,1.263675605,3.972757036,0.181409239,-0.490524569,-0.010792125
1.011288571,1.005095669,3.22303E-05,-0.000941035,,,1.264023643,0.02683344,-30.17470148,-70.56990478,1.009134255
1.01759974,0.754266176,2.63205E-05,-0.000729227,,,1.265522248,3.456378144,-3.610435412,-9.830634574,-0.143224093
1.018776346,3.239638046,3.33674E-05,-0.002794552,,,1.266965673,3.6737191,-2.030260916,-5.892030389,-0.105297503
1.023910908,0.503436683,1.89254E-05,-0.000501932,,,1.267786338,0.472869405,-25.86466826,-62.91488302,0.86091131
1.023910908,0.503436683,1.89254E-05,-0.000501932,,,1.271064218,3.520232325,-3.148292031,-8.672946363,-0.135463867
1.028308086,3.491404468,3.03028E-05,-0.002905122,,,1.277385298,0.125867241,-29.19532265,-68.86957536,0.995665522
1.028308086,3.491404468,3.03028E-05,-0.002905122,,,1.277443221,3.872211808,-0.573131512,-2.303440857,-0.048348035
1.033842001,2.245293097,4.38084E-05,-0.001937032,,,1.291084979,2.548058391,-10.2519063,-26.27094252,-0.066374142
1.036577475,1.752342911,4.3076E-05,-0.001477487,,,1.291891304,2.731320601,-8.887032951,-22.96582338,-0.10529748
1.053622121,0.251718341,1.03422E-05,-0.000258491,,,1.293519495,2.424646032,-11.18145721,-28.49173189,-0.037338406
1.062628959,2,4.49126E-05,-0.001623211,,,1.300028486,1.44423347,-17.3016973,-45.97338224,0.359853814
1.062628959,2,4.49126E-05,-0.001623211,,,1.300047657,1.258736325,-18.84200412,-49.23803145,0.466533803
1.062628959,2,4.49126E-05,-0.001623211,,,1.301510928,2.243675239,-12.56072823,-31.74059476,0.007173127
1.062628959,2,4.49126E-05,-0.001623211,,,1.301567585,1.569280136,-16.28601961,-43.76371279,0.289557551
1.062628959,2,4.49126E-05,-0.001623211,,,1.306129175,1.752839405,-14.82679522,-40.5075415,0.190024394
1.062628959,2,4.49126E-05,-0.001623211,,,1.307722346,3.233459496,-5.224003235,-13.87514037,-0.161620208
1.062698175,3.745702234,2.85435E-05,-0.002973029,,,1.310112996,0.756218899,-23.22765956,-58.00203267,0.754174054
1.077541616,2.613752006,4.3645E-05,-0.002332762,,,1.317569071,0.56851039,-24.94735609,-61.24616193,0.854608065
1.079636399,2.862394722,4.08785E-05,-0.002548127,,,1.318673293,3.423121816,-3.856629115,-10.43497999,-0.154102213
1.079636399,2.862394722,4.08785E-05,-0.002548127,,,1.324394444,0.441200998,-26.13858759,-63.43742512,0.918900609
1.083090636,1.380388104,4.15973E-05,-0.001228231,,,1.325386654,3.552065515,-2.926555328,-8.096766571,-0.137263499
1.083333333,0,0,0,,,1.33424918,3.742961115,-1.542125274,-4.639386082,-0.093664992
1.083333333,0,0,0,,,1.33708243,0.253174999,-27.93438872,-66.66101599,1.006012147
1.083333333,0,0,0,,,1.340861798,2.454037732,-10.94745516,-27.96230681,-0.043579923
1.083471926,1.130593028,3.74015E-05,-0.001040914,,,1.341795248,2.515126244,-10.4870535,-26.86340927,-0.058776601
1.083471926,1.130593028,3.74015E-05,-0.001040914,,,1.351518814,1.539137798,-16.50020894,-44.28705319,0.322621094
1.087529401,3.112749901,3.75615E-05,-0.002722577,,,1.35321873,1.476858665,-17.00423656,-45.38643419,0.359883085
1.087529401,3.112749901,3.75615E-05,-0.002722577,,,1.36282212,2.309317309,-12.04167059,-30.56052882,-0.005344066
1.088490278,0.880049122,3.1795E-05,-0.000837204,,,1.363977469,2.852934361,-7.979185487,-20.76966325,-0.132708191
1.088490278,0.880049122,3.1795E-05,-0.000837204,,,1.364576907,2.662329216,-9.382679899,-24.21149896,-0.094107707
1.090887704,2.3667841,4.59944E-05,-0.002077534,,,1.368684446,1.686258438,-15.31570259,-41.67944223,0.242388804
1.094801447,0.629219629,2.4613E-05,-0.000617664,,,1.369866493,2.121144387,-13.49138148,-33.93052606,0.04377934
1.095925733,1.629114187,4.48682E-05,-0.001398801,,,1.371847952,3.102575272,-6.165863889,-16.2502209,-0.165203372
1.09706114,3.364516323,3.4017E-05,-0.002854938,,,1.372162478,1.877122851,-13.82713638,-38.28693735,0.1371068
1.097088265,4,2.815E-05,-0.002997062,,,1.372647035,0.537251254,-25.21202006,-61.76282659,0.911362051
1.097088265,4,2.815E-05,-0.002997062,,,1.372874794,1.134116758,-19.85797353,-51.40197405,0.575029167
1.097088265,4,2.815E-05,-0.002997062,,,1.374318317,1.327015783,-18.22603702,-48.01997176,0.458272692
1.112812637,0.377945712,1.60325E-05,-0.000382339,,,1.374927175,0.473352358,-25.81154574,-62.86235635,0.944090413
1.119022054,3.617548417,3.11742E-05,-0.002944415,,,1.376123694,3.453791226,-3.642259006,-9.879847977,-0.158729325
1.119674663,2.121491003,4.77603E-05,-0.001783539,,,1.377295085,3.518880744,-3.174580195,-8.69928337,-0.149710681
1.119674663,2.121491003,4.77603E-05,-0.001783539,,,1.377878828,0.884287658,-22.03932812,-55.75538629,0.726662901
1.121977217,1.876771277,4.73774E-05,-0.001552587,,,1.384672569,3.299736006,-4.748053885,-12.67499224,-0.171523739
1.121977217,1.876771277,4.73774E-05,-0.001552587,,,1.385401278,2.94873447,-7.277570633,-19.03711531,-0.149923022
1.14252385,0.12622737,5.81337E-06,-0.000131437,,,1.387079174,3.001955024,-6.891432589,-18.07361578,-0.157120792
1.14252385,0.12622737,5.81337E-06,-0.000131437,,,1.387095091,0.689128493,-23.79771404,-59.13491496,0.842930099
1.147933408,2.488275103,4.78283E-05,-0.002208175,,,1.392551703,2.025826582,-14.23037642,-35.63197351,0.070005804
1.147933408,2.488275103,4.78283E-05,-0.002208175,,,1.39304118,1.973804013,-13.07827523,-36.56069221,0.089671502
1.15002819,2.736917819,4.53897E-05,-0.002444698,,,1.394257944,1.036701385,-20.68705409,-53.09651118,0.645640959
1.15002819,2.736917819,4.53897E-05,-0.002444698,,,1.395103422,3.6737191,-2.06213643,-5.893222089,-0.119062635
1.151110809,2.982976417,4.19123E-05,-0.002637552,,,1.395324746,0.983440711,-21.15211892,-54.02439445,0.678483105
1.151110809,2.982976417,4.19123E-05,-0.002637552,,,1.402140557,0.321376147,-27.24930282,-65.460618,1.034676975
1.153412144,3.871846183,2.96809E-05,-0.002990434,,,1.402702423,2.334076348,-11.84188462,-30.11460331,-0.00944275
1.153412144,3.871846183,2.96809E-05,-0.002990434,,,1.403056333,3.872211808,-0.619356749,-2.303740605,-0.054793405
1.155273991,1.505885464,4.62391E-05,-0.001316114,,,1.407294324,2.634587769,-9.578550143,-24.71162666,-0.0887248
1.155273991,1.505885464,4.62391E-05,-0.001316114,,,1.410762462,1.660867075,-15.49193248,-42.12156653,0.268935058
1.155655281,1.256090388,4.25685E-05,-0.001136796,,,1.413961004,0.125867241,-29.15363723,-68.80070424,1.118557152
1.155655281,1.256090388,4.25685E-05,-0.001136796,,,1.41912482,1.354498661,-17.96983089,-47.52517331,0.460323564
1.155681021,1.007031035,3.72679E-05,-0.000942207,,,1.426159783,3.972757036,0.112376572,-0.490550504,-0.012730878
1.155681021,1.007031035,3.72679E-05,-0.000942207,,,1.433067752,3.325571364,-4.564948967,-12.20748837,-0.177508729
1.165691985,0.755002575,3.05227E-05,-0.000729486,,,1.433491777,0.66279636,-24.01418079,-59.57085385,0.890724689
1.165691985,0.755002575,3.05227E-05,-0.000729486,,,1.43883015,3.645764846,-2.275146843,-6.400160413,-0.131304182
1.165814194,3.237628178,3.82042E-05,-0.002793756,,,1.440688252,0.02683344,-30.13081101,-70.47572526,1.17316297
1.165814194,3.237628178,3.82042E-05,-0.002793756,,,1.44470842,0.348459873,-26.96983432,-64.97501691,1.059112494
1.172003153,0.504173082,2.19589E-05,-0.000502306,,,1.451242012,2.150820123,-13.23943465,-33.39272913,0.045628983
1.172003153,0.504173082,2.19589E-05,-0.000502306,,,1.454100425,1.847022655,-14.01306066,-38.81023314,0.170646552
1.175345934,3.489394599,3.43726E-05,-0.002904659,,,1.457822437,2.819640118,-8.20455313,-21.37288952,-0.133208707
1.175345934,3.489394599,3.43726E-05,-0.002904659,,,1.467292386,2.453903278,-10.91439657,-27.96125483,-0.039776037
1.176720366,2.242982007,5.03298E-05,-0.001934059,,,1.467620887,3.130433492,-5.958706619,-15.74785476,-0.179340907
1.176720366,2.242982007,5.03298E-05,-0.001934059,,,1.468078707,2.50536314,-10.52701415,-27.03663168,-0.054467218
1.181325475,1.753542553,4.95288E-05,-0.001477896,,,1.468522316,1.165816784,-19.5265315,-50.81754359,0.604455066
1.181325475,1.753542553,4.95288E-05,-0.001477896,,,1.474752147,0.854789122,-22.24486034,-56.23074267,0.806319879
1.187450133,2,5.05358E-05,-0.001622967,,,1.484107457,3.840908595,-0.880149967,-2.869305615,-0.07201231
1.187450133,2,5.05358E-05,-0.001622967,,,1.485988749,1.537979873,-16.42684504,-44.27692695,0.369503011
1.201714366,0.252454741,1.19889E-05,-0.000259028,,,1.487420728,1.485517053,-16.85040366,-45.20141377,0.404012522
1.201714366,0.252454741,1.19889E-05,-0.000259028,,,1.488576911,2.35981212,-11.62115604,-29.64868211,-0.010976717
1.209736023,3.743692365,3.189E-05,-0.00297278,,,1.491122315,2.175579162,-13.03599807,-32.94636834,0.043635632
1.209736023,3.743692365,3.189E-05,-0.00297278,,,1.492265298,2.60119418,-9.804539968,-25.31232123,-0.080977495
1.21875,0,0,0,,,1.496178441,1.821631292,-14.1839773,-39.25403973,0.195297201
1.220419982,2.611440916,4.99268E-05,-0.002330509,,,1.500539854,2.791898671,-8.397708021,-21.87430998,-0.129722078
1.220419982,2.611440916,4.99268E-05,-0.002330509,,,1.501585208,0.156699895,-28.81826023,-68.22479949,1.188782012
1.221502601,2.857499514,4.66623E-05,-0.002544373,,,1.503503939,1.633736492,-15.64978361,-42.58167377,0.31398257
1.221635371,4,3.05614E-05,-0.002996959,,,1.509483724,0.533364928,-25.17721382,-61.76677178,1.020218996
1.227838636,1.381587747,4.76548E-05,-0.001228651,,,1.510220899,1.387649874,-17.63655102,-46.9167706,0.477803449
1.227838636,1.381587747,4.76548E-05,-0.001228651,,,1.511404473,0.479537648,-25.68466996,-62.69121887,1.05072404
1.227864376,1.132528395,4.28876E-05,-0.001041972,,,1.513310725,2.030658991,-14.16186334,-35.53103876,0.087340114
1.229395603,3.107854693,4.26752E-05,-0.002719759,,,1.513328819,1.193299661,-19.26263859,-50.32185874,0.609553354
1.232882728,0.881984488,3.64851E-05,-0.000838398,,,1.513891788,1.968902485,-13.04969763,-36.63168486,0.113021295
1.23376607,2.36447301,5.25543E-05,-0.00207475,,,1.516016071,3.156268851,-5.770901916,-15.28076477,-0.187381673
1.23376607,2.36447301,5.25543E-05,-0.00207475,,,1.521148832,0.828456989,-22.45244793,-56.6675774,0.853738989
1.240673733,1.63031383,5.12913E-05,-0.001399171,,,1.52133096,3.45564372,-3.64731598,-9.849279652,-0.179219995
1.240673733,1.63031383,5.12913E-05,-0.001399171,,,1.522317718,3.510473958,-3.258763779,-8.854482144,-0.171131188
1.242893692,0.629956028,2.83226E-05,-0.000617936,,,1.522871621,2.939096606,-7.325334425,-19.21433252,-0.161404555
1.242893692,0.629956028,2.83226E-05,-0.000617936,,,1.524863468,3.002275252,-6.870622336,-18.07104931,-0.171888335
1.244098988,3.362506454,3.8448E-05,-0.002854275,,,1.527745281,0.63270313,-24.23852422,-60.04714041,0.978103275
1.244098988,3.362506454,3.8448E-05,-0.002854275,,,1.527834185,3.812954341,-1.099881488,-3.374574085,-0.086299034
1.244495837,2.121491003,5.35136E-05,-0.001783267,,,1.534197658,1.043530351,-20.53816578,-52.92713007,0.721593575
1.246798391,1.876771277,5.3051E-05,-0.001552268,,,1.534728959,3.354645054,-4.363552564,-11.68247299,-0.190869337
1.260904883,0.378682111,1.84468E-05,-0.000382759,,,1.53546407,0.980304078,-21.09099093,-54.02660011,0.764509207
1.260904883,0.378682111,1.84468E-05,-0.000382759,,,1.53675491,0.380216257,-26.6206364,-64.38207552,1.122947062
1.266059902,3.615538548,3.47843E-05,-0.002944022,,,1.539357534,3.611836485,-2.542862784,-7.016410732,-0.152360094
1.266059902,3.615538548,3.47843E-05,-0.002944022,,,1.54415307,0.183783622,-28.53398666,-67.73721675,1.218023021
1.277940516,0.12622737,6.59093E-06,-0.000131329,,,1.546629927,3.967659608,0.016227707,-0.582370699,-0.016960757
1.27795925,3.871846183,3.21438E-05,-0.002990389,,,1.556932475,2.237281268,-12.53903731,-31.83710813,0.033276647
1.290811774,2.485964013,5.43703E-05,-0.002205586,,,1.560653027,2.060050691,-13.91773076,-35.0004822,0.087276003
1.290811774,2.485964013,5.43703E-05,-0.002205586,,,1.563843018,1.938760147,-13.24847676,-37.1600975,0.140531037
1.290811774,2.485964013,5.43703E-05,-0.002205586,,,1.564351463,2.72280794,-8.887263758,-23.12075659,-0.115183276
1.290811774,2.485964013,5.43703E-05,-0.002205586,,,1.569537241,1.758019937,-14.63101851,-40.36716418,0.254250342
1.290811774,2.485964013,5.43703E-05,-0.002205586,,,1.571590653,0.031854242,-30.04225002,-70.30859191,1.298594631
1.290811774,2.485964013,5.43703E-05,-0.002205586,,,1.57358189,2.906164459,-7.553059656,-19.81068709,-0.159386935
1.291894393,2.732022611,5.15304E-05,-0.002440396,,,1.582313869,3.032944662,-6.642795326,-17.51698934,-0.182436267
1.292977012,2.978081208,4.74476E-05,-0.002634201,,,1.583048036,1.263030307,-18.62478293,-49.07756002,0.597283789
1.292977012,2.978081208,4.74476E-05,-0.002634201,,,1.587387902,1.076155546,-20.21823126,-52.33766755,0.730572837
1.300021991,1.507085106,5.25866E-05,-0.001316447,,,1.590542033,0.949044943,-21.32984931,-54.54611417,0.820235792
1.300021991,1.507085106,5.25866E-05,-0.001316447,,,1.595511113,0.760771889,-23.01829688,-57.80390314,0.949286002
1.300021991,1.507085106,5.25866E-05,-0.001316447,,,1.598538358,3.934474836,-0.252535329,-1.180525952,-0.035217389
1.300021991,1.507085106,5.25866E-05,-0.001316447,,,1.598854565,3.223760831,-5.288545951,-14.05885558,-0.201891172
1.300021991,1.507085106,5.25866E-05,-0.001316447,,,1.607981242,2.029391701,-14.14547575,-35.53945523,0.104787895
1.300021991,1.507085106,5.25866E-05,-0.001316447,,,1.608164687,3.741087178,-1.64540998,-4.675302777,-0.121014191
1.300047731,1.258025754,4.84541E-05,-0.001137735,,,1.610590169,1.969857662,-12.9858192,-36.59857867,0.131805129
1.300073471,1.008966402,4.24684E-05,-0.000943276,,,1.613633484,0.2529085,-27.8223971,-66.51435144,1.252910995
1.300073471,1.008966402,4.24684E-05,-0.000943276,,,1.620249852,2.354747304,-11.61780927,-29.73034099,0.00202361
1.30154154,2.242982007,5.61739E-05,-0.001933767,,,1.622123384,0.064005601,-29.70107384,-69.72754755,1.338024326
1.306146649,1.753542553,5.52197E-05,-0.0014775,,,1.62393824,2.596129364,-9.803060613,-25.40022692,-0.078105616
1.307680397,3.232732969,4.29483E-05,-0.002791327,,,1.625045979,2.932778487,-7.351243698,-19.33001318,-0.16889939
1.310084435,0.756937942,3.48014E-05,-0.000730715,,,1.625441688,2.170412551,-13.03500228,-33.02359156,0.064360007
1.312271307,2,5.62727E-05,-0.001622622,,,1.631786111,2.996380044,-6.895505439,-18.17961299,-0.18162672
1.312271307,2,5.62727E-05,-0.001622622,,,1.634859227,2.78673206,-8.401963442,-21.96757714,-0.134655787
1.320095399,0.504909481,2.5105E-05,-0.000502612,,,1.637615128,2.447351793,-10.91023772,-28.07035217,-0.028081781
1.320095399,0.504909481,2.5105E-05,-0.000502612,,,1.638401449,2.498811655,-10.52331899,-27.14741389,-0.045521523
1.320095399,0.504909481,2.5105E-05,-0.000502612,,,1.638765203,1.825525448,-14.06440346,-39.15523152,0.229903534
1.320095399,0.504909481,2.5105E-05,-0.000502612,,,1.641834968,1.045935556,-20.44254879,-52.83999928,0.784623251
1.320095399,0.504909481,2.5105E-05,-0.000502612,,,1.64328138,1.637553923,-15.52605459,-42.47768711,0.358958466
1.320095399,0.504909481,2.5105E-05,-0.000502612,,,1.643722688,0.982051225,-21.00126342,-53.94893815,0.831404384
1.322383781,3.487384731,3.83399E-05,-0.002904089,,,1.645240931,3.966815229,-0.042869529,-0.597637837,-0.019047834
1.322383781,3.487384731,3.83399E-05,-0.002904089,,,1.649998341,1.391467306,-17.5075396,-46.80367226,0.537783614
1.322383781,3.487384731,3.83399E-05,-0.002904089,,,1.655915581,1.197193817,-19.12942209,-50.19941796,0.683025758
1.322383781,3.487384731,3.83399E-05,-0.002904089,,,1.665310124,2.144585969,-13.22320528,-33.47853504,0.079608697
1.322383781,3.487384731,3.83399E-05,-0.002904089,,,1.666268605,0.829668309,-22.34528365,-56.57750826,0.953848005
1.322383781,3.487384731,3.83399E-05,-0.002904089,,,1.666794896,1.54291783,-16.26357231,-44.13772234,0.435162468
1.334283129,3.743692365,3.45148E-05,-0.002972775,,,1.668226874,1.49045501,-16.68567523,-45.05971115,0.473803884
1.337131033,0.252454741,1.35218E-05,-0.000258815,,,1.669693714,3.152826404,-5.783382098,-15.34676518,-0.206975694
1.346182477,4,3.27003E-05,-0.00299673,,,1.670005827,0.633890584,-24.13989901,-59.9517898,1.088080277
1.354166667,0,0,0,,,1.675532731,0.03215136,-30.00522421,-70.23087333,1.402734834
1.358587244,2.36447301,5.84415E-05,-0.002074446,,,1.678144161,1.851721434,-13.83781903,-38.68169167,0.223571281
1.358587244,2.36447301,5.84415E-05,-0.002074446,,,1.678211649,2.809151237,-8.227893196,-21.56286963,-0.142400997
1.362286184,2.606545708,5.63922E-05,-0.002325636,,,1.679015456,0.381403711,-26.53468677,-64.27727017,1.247458875
1.362286184,2.606545708,5.63922E-05,-0.002325636,,,1.681511828,3.809511893,-1.189250153,-3.437613861,-0.100385715
1.363368804,2.852604305,5.26115E-05,-0.002540467,,,1.685378764,3.351270432,-4.395727782,-11.74728648,-0.213499022
1.365494907,1.63031383,5.69621E-05,-0.001398699,,,1.689272843,0.184994941,-28.460409,-67.62202443,1.355686573
1.365494907,1.63031383,5.69621E-05,-0.001398699,,,1.690007338,3.608461862,-2.60565629,-7.079676682,-0.173426818
1.369317011,2.121491003,5.94045E-05,-0.001782875,,,1.693501839,0.534900934,-25.05532263,-61.63875504,1.170007901
1.371261806,3.102959485,4.78809E-05,-0.002716801,,,1.695422587,0.481073654,-25.56622551,-62.56058081,1.204509723
1.371619565,1.876771277,5.8849E-05,-0.001551836,,,1.70178081,1.171737041,-19.31242469,-50.62339787,0.727784131
1.372231085,1.383523114,5.38888E-05,-0.001229465,,,1.707344538,2.322358252,-11.83424175,-30.30109795,0.023694306
1.372231085,1.383523114,5.38888E-05,-0.001229465,,,1.711067032,0.857472207,-22.06281813,-56.0731613,0.966118628
1.372256825,1.134463761,4.85499E-05,-0.001042908,,,1.71136824,3.122025028,-5.995378816,-15.90578573,-0.208866676
1.377275178,0.883919855,4.13386E-05,-0.000839487,,,1.711936439,2.622869673,-9.576386552,-24.91613562,-0.084698551
1.38596519,3.357611246,4.27506E-05,-0.002852201,,,1.716200821,3.451278549,-3.703810526,-9.932605069,-0.208981358
1.38596519,3.357611246,4.27506E-05,-0.002852201,,,1.71718758,3.506108786,-3.323845077,-8.937319362,-0.200407718
1.387286142,0.631891395,3.21215E-05,-0.000619219,,,1.720853235,3.836754857,-1.014409711,-2.945052709,-0.090935056
1.387286142,0.631891395,3.21215E-05,-0.000619219,,,1.723942999,2.024759039,-14.14686585,-35.6006051,0.130698782
1.390607008,3.615538548,3.76711E-05,-0.002944033,,,1.726140711,1.974608637,-12.87780582,-36.49092559,0.155360453
1.390607008,3.615538548,3.76711E-05,-0.002944033,,,1.734155371,1.669699189,-15.20778499,-41.8830059,0.369162279
1.396321549,0.378682111,2.07065E-05,-0.000382443,,,1.734263916,0.158161502,-28.70874017,-68.04634772,1.411953916
1.396321549,0.378682111,2.07065E-05,-0.000382443,,,1.742517729,1.363330774,-17.67047534,-47.26035406,0.603734864
1.402506356,3.871846183,3.43631E-05,-0.002990215,,,1.743942793,2.116136881,-13.41915591,-33.97208883,0.104604926
1.413357183,0.12622737,7.39713E-06,-0.000131203,,,1.747212974,2.29653167,-12.01722366,-30.75745423,0.039057359
1.421367283,2.48094218,6.05669E-05,-0.002200035,,,1.753706056,2.922820493,-7.393275666,-19.51043723,-0.176030387
1.421367283,2.48094218,6.05669E-05,-0.002200035,,,1.754251574,1.880897087,-13.56431425,-38.14566412,0.225593485
1.426362714,2.242982007,6.2176E-05,-0.001933338,,,1.755288861,2.64528885,-9.396352502,-24.51120577,-0.09122563
1.426362714,2.242982007,6.2176E-05,-0.001933338,,,1.757577162,3.972045746,-0.071581536,-0.50338342,-0.01774224
1.430967823,1.753542553,6.10445E-05,-0.001476981,,,1.759383822,2.976397299,-7.012203667,-18.54221027,-0.188975808
1.430967823,1.753542553,6.10445E-05,-0.001476981,,,1.762629664,0.665543686,-23.78313837,-59.35221364,1.141057131
1.433760595,2.727127402,5.78746E-05,-0.002435906,,,1.764244413,2.437752268,-10.93640845,-28.23200683,-0.013072711
1.433760595,2.727127402,5.78746E-05,-0.002435906,,,1.765177863,2.49884078,-10.4774608,-27.13823312,-0.036527514
1.434843215,2.973186,5.31287E-05,-0.002630676,,,1.767704065,2.827969265,-8.066867068,-21.22226132,-0.150954855
1.434843215,2.973186,5.31287E-05,-0.002630676,,,1.773534329,1.695895175,-14.97361952,-41.40831404,0.364568458
1.437092481,2,6.21341E-05,-0.001622148,,,1.773846307,0.351207199,-26.77541065,-64.72907588,1.351274304
1.437092481,2,6.21341E-05,-0.001622148,,,1.781169119,1.044639105,-20.34979761,-52.7941552,0.873711373
1.438613222,1.510870141,5.8877E-05,-0.001318426,,,1.781615257,3.317763746,-4.631237364,-12.35742151,-0.228998861
1.438613222,1.510870141,5.8877E-05,-0.001318426,,,1.782759301,0.990824095,-20.82093849,-53.72628144,0.916419454
1.44444018,1.259961121,5.45275E-05,-0.001138533,,,1.787377655,3.637957227,-2.429202943,-6.545975942,-0.178177651
1.44444018,1.259961121,5.45275E-05,-0.001138533,,,1.788382957,1.337873998,-17.84568029,-47.68538353,0.647265615
1.44446592,1.010901768,4.78473E-05,-0.000944221,,,1.792702875,3.86887537,-0.824756693,-2.364801659,-0.079668329
1.44446592,1.010901768,4.78473E-05,-0.000944221,,,1.794336684,3.079281245,-6.282729057,-16.68100638,-0.212078555
1.449546599,3.227837761,4.77411E-05,-0.002788731,,,1.798187425,1.143620565,-19.4788738,-51.06618052,0.80680552
1.449546599,3.227837761,4.77411E-05,-0.002788731,,,1.800960729,1.551412408,-16.09488806,-43.94003799,0.485633301
1.454476884,0.758873308,3.92402E-05,-0.000731842,,,1.802660644,1.489133276,-16.59458739,-45.03196881,0.535092105
1.454476884,0.758873308,3.92402E-05,-0.000731842,,,1.805646467,0.891191247,-21.68956546,-55.43695427,1.008972699
1.458830235,3.743692365,3.69355E-05,-0.002972635,,,1.806888538,0.027083726,-30.00949263,-70.21404135,1.541128235
1.458830235,3.743692365,3.69355E-05,-0.002972635,,,1.80726017,2.233602917,-12.47933672,-31.87032302,0.073756912
1.461148662,0.506086858,2.82395E-05,-0.000503276,,,1.80742809,0.693347584,-23.49322929,-58.84575571,1.157539984
1.461148662,0.506086858,2.82395E-05,-0.000503276,,,1.811572628,2.407093278,-11.14918403,-28.77516872,0.004752467
1.470729582,4,3.45286E-05,-0.002996335,,,1.816641952,2.525454808,-10.25884143,-26.65714196,-0.042481219
1.471755108,3.484038747,4.22851E-05,-0.002902872,,,1.81883738,0.324373759,-27.01278276,-65.15367494,1.409218117
1.471755108,3.484038747,4.22851E-05,-0.002902872,,,1.823289783,3.28696237,-4.84299924,-12.91709108,-0.235124365
1.472547699,0.252454741,1.51103E-05,-0.000258566,,,1.82467248,0.127041259,-28.98163621,-68.50481307,1.517644404
1.472547699,0.252454741,1.51103E-05,-0.000258566,,,1.826719062,3.665200191,-2.254812056,-6.052511382,-0.174485508
1.489142753,2.359451176,6.48154E-05,-0.002068331,,,1.827290842,2.701290689,-8.961635068,-23.50107212,-0.109407876
1.489583333,0,0,0,,,1.827995713,1.760431073,-14.4321148,-40.25220071,0.336548847
1.492841694,2.601523874,6.25546E-05,-0.002320462,,,1.830073152,0.541069406,-24.90809715,-61.44350208,1.283130929
1.494138185,2.121491003,6.54471E-05,-0.001782333,,,1.832353292,0.47717051,-25.51781774,-62.53533585,1.327689627
1.494138185,2.121491003,6.54471E-05,-0.001782333,,,1.84770788,1.582509923,-15.81016178,-43.37528576,0.481968002
1.496440739,1.876771277,6.47825E-05,-0.001551264,,,1.857107711,1.458913286,-16.79614097,-45.53756468,0.585595244
1.496440739,1.876771277,6.47825E-05,-0.001551264,,,1.858304738,2.43440493,-10.92351185,-28.28144109,-0.000352939
1.504086138,1.634098865,6.34657E-05,-0.001400493,,,1.860524724,3.442940428,-3.779892989,-10.08662337,-0.232274214
1.505235006,2.847709097,5.87551E-05,-0.00253635,,,1.861696115,3.508029946,-3.337728941,-8.905041244,-0.222153521
1.505235006,2.847709097,5.87551E-05,-0.00253635,,,1.862440612,2.491677949,-10.49194639,-27.25712267,-0.02402432
1.510822317,1.387308149,6.00946E-05,-0.001231475,,,1.864737829,2.116136881,-13.37476363,-33.94729486,0.132434166
1.513128008,3.098064276,5.31995E-05,-0.002713642,,,1.865137729,1.272057564,-18.33350207,-48.79617561,0.742934077
1.513128008,3.098064276,5.31995E-05,-0.002713642,,,1.870435812,2.29653167,-11.96779107,-30.73897314,0.060195611
1.516649275,1.136399128,5.44042E-05,-0.001043699,,,1.874545526,3.736250054,-1.785914592,-4.765028111,-0.152636618
1.516649275,1.136399128,5.44042E-05,-0.001043699,,,1.87504661,1.880897087,-13.47827786,-38.11045245,0.263437495
1.521667627,0.885855222,4.63696E-05,-0.000840453,,,1.880141181,0.764309942,-22.78412169,-57.57708353,1.16298498
1.521667627,0.885855222,4.63696E-05,-0.000840453,,,1.880194857,2.024759039,-14.09387594,-35.56376077,0.170766072
1.527053461,3.871846183,3.63074E-05,-0.00298987,,,1.880860883,3.206790846,-5.389678646,-14.37177845,-0.238745495
1.527053461,3.871846183,3.63074E-05,-0.00298987,,,1.88239257,1.974608637,-12.77185081,-36.45121369,0.19806857
1.528339405,0.633068771,3.59464E-05,-0.000619735,,,1.883253807,0.574075689,-24.55756903,-60.84009434,1.306727333
1.535336517,3.354265262,4.72225E-05,-0.00285061,,,1.885762639,0.445316268,-25.79021527,-63.03977431,1.397458377
1.537374812,0.379859487,2.32117E-05,-0.000383192,,,1.890054452,0.25553647,-27.65468605,-66.26903427,1.518319955
1.539978335,3.612192564,4.10009E-05,-0.00294295,,,1.891567651,2.629733478,-9.458547721,-24.78171272,-0.078916048
1.54877385,0.12622737,8.23433E-06,-0.000131057,,,1.896757167,1.695895175,-14.87910856,-41.36324181,0.4131937
1.54877385,0.12622737,8.23433E-06,-0.000131057,,,1.901297818,2.812720373,-8.132954057,-21.49291688,-0.148534544
1.551922792,2.475920346,6.69758E-05,-0.00219427,,,1.905092458,1.55634704,-15.97228767,-43.80931966,0.529479564
1.551922792,2.475920346,6.69758E-05,-0.00219427,,,1.908398688,3.540370338,-3.128273004,-8.318551909,-0.22256576
1.556918223,2.237960173,6.86492E-05,-0.001926668,,,1.9098021,2.319538515,-11.77423601,-30.32244742,0.057834646
1.561913655,2,6.81302E-05,-0.001621517,,,1.909996966,3.40637581,-4.033152939,-10.75136357,-0.243844402
1.561913655,2,6.81302E-05,-0.001621517,,,1.910010509,3.972045746,-0.173106178,-0.503420181,-0.020212509
1.561913655,2,6.81302E-05,-0.001621517,,,1.910545899,3.86887537,-0.891964803,-2.365171731,-0.087775461
1.561913655,2,6.81302E-05,-0.001621517,,,1.912792373,1.495029535,-16.45794853,-44.87943964,0.583846801
1.561913655,2,6.81302E-05,-0.001621517,,,1.926513424,2.903095611,-7.484508497,-19.86355494,-0.179093938
1.561913655,2,6.81302E-05,-0.001621517,,,1.927930437,3.064032352,-6.363311515,-16.95700766,-0.221975602
1.564316105,2.722105569,6.39303E-05,-0.002431101,,,1.930147617,2.60128046,-9.650980309,-25.28815891,-0.064016512
1.569559054,1.757327588,6.77086E-05,-0.001478582,,,1.93219119,2.956672418,-7.107269538,-18.89675112,-0.195383885
1.576709417,2.968290791,5.89832E-05,-0.002626914,,,1.936067174,1.341794454,-17.6919004,-47.54319953,0.725411726
1.576709417,2.968290791,5.89832E-05,-0.002626914,,,1.937092122,0.542473054,-24.8197964,-61.33997501,1.377243097
1.576709417,2.968290791,5.89832E-05,-0.002626914,,,1.937320814,0.47761253,-25.44281324,-62.4478679,1.423423737
1.576709417,2.968290791,5.89832E-05,-0.002626914,,,1.942961889,1.147463778,-19.3267828,-50.91767217,0.895538653
1.576709417,2.968290791,5.89832E-05,-0.002626914,,,1.944784819,2.144585969,-13.11836154,-33.42328202,0.141827078
1.576709417,2.968290791,5.89832E-05,-0.002626914,,,1.945096902,1.673856033,-15.01206034,-41.73027071,0.4516738
1.577204453,1.514655176,6.53601E-05,-0.001320231,,,1.946930557,3.665200191,-2.298160286,-6.05368518,-0.190884109
1.577204453,1.514655176,6.53601E-05,-0.001320231,,,1.950420931,0.89503446,-21.53984208,-55.27756234,1.11338246
1.583031411,1.263746156,6.05957E-05,-0.001140581,,,1.955112307,0.69726804,-23.34594935,-58.6750445,1.276464537
1.58885837,1.012837135,5.34189E-05,-0.000945019,,,1.955292196,3.519867617,-3.27641286,-8.691458556,-0.234297591
1.58885837,1.012837135,5.34189E-05,-0.000945019,,,1.957618857,1.851721434,-13.63606084,-38.59649227,0.314910381
1.58885837,1.012837135,5.34189E-05,-0.000945019,,,1.958158055,0.324373759,-26.92885316,-65.04131106,1.545271841
1.58885837,1.012837135,5.34189E-05,-0.000945019,,,1.959568573,3.271406997,-4.944635422,-13.20093432,-0.253628805
1.58885837,1.012837135,5.34189E-05,-0.000945019,,,1.961248186,0.127041259,-28.91551648,-68.38619094,1.661422727
1.58885837,1.012837135,5.34189E-05,-0.000945019,,,1.964282015,3.425994163,-3.906279767,-10.39583132,-0.250304141
1.595276688,4,3.60055E-05,-0.002995724,,,1.968439059,1.049610411,-20.15347034,-52.59622193,0.99647351
1.595276688,4,3.60055E-05,-0.002995724,,,1.97002924,0.995795401,-20.6252365,-53.52533337,1.043509386
1.595276688,4,3.60055E-05,-0.002995724,,,1.97710125,2.430885303,-10.89694917,-28.32700611,0.019359883
1.595530148,0.760050685,4.37113E-05,-0.000732205,,,1.978919825,3.474396452,-3.584781861,-9.517360171,-0.246265219
1.598917926,3.224491777,5.28062E-05,-0.002786716,,,1.980585236,2.479131062,-10.53314231,-27.46586726,-0.002803779
1.602201925,0.507264234,3.15E-05,-0.000503859,,,1.982974931,1.372218132,-17.39993248,-46.98687327,0.726215017
1.602201925,0.507264234,3.15E-05,-0.000503859,,,1.983553148,0.027083726,-29.93677663,-70.05470792,1.733615985
1.608201562,3.740346381,3.96017E-05,-0.002971621,,,1.984151107,2.167592813,-12.9203564,-33.00522641,0.142712539
1.613600963,0.253632117,1.69028E-05,-0.000259435,,,1.986432804,3.647929068,-2.428604383,-6.367498919,-0.20275749
1.619698262,2.354429343,7.14054E-05,-0.00206198,,,1.987297807,2.773870983,-8.377757025,-22.18672231,-0.13288133
1.621126435,3.480692763,4.61192E-05,-0.002901399,,,1.991915068,2.341520801,-11.5683522,-29.91559447,0.064542124
1.621126435,3.480692763,4.61192E-05,-0.002901399,,,1.993498076,3.836754857,-1.161591136,-2.946142335,-0.113482097
1.623397203,2.596502041,6.89419E-05,-0.002315045,,,1.996386922,2.029391701,-14.01284819,-35.44726931,0.2045531
1.624693694,2.11646917,7.19265E-05,-0.001775129,,,1.998995848,1.969857662,-12.72178901,-36.49784999,0.239445457
1.624693694,2.11646917,7.19265E-05,-0.001775129,,,2.000464735,0.670646549,-23.55895536,-59.09619195,1.336253983
1.625,0,0,0,,,2.001589734,0.351579549,-26.63126715,-64.54062551,1.571004236
1.625,0,0,0,,,2.005297321,3.287933144,-4.831619888,-12.90164896,-0.260545514
1.625,0,0,0,,,2.005958592,1.829682292,-13.76459047,-38.96547261,0.351224181
1.63503197,1.880556312,7.15535E-05,-0.001552661,,,2.008257352,2.567826513,-9.861802701,-25.87762184,-0.040733029
1.63503197,1.880556312,7.15535E-05,-0.001552661,,,2.020454397,3.086744774,-6.187357993,-16.54503664,-0.234683423
1.635790515,2.842687263,6.46211E-05,-0.002531902,,,2.024154681,3.966815229,-0.294017129,-0.597701484,-0.026344735
1.635790515,2.842687263,6.46211E-05,-0.002531902,,,2.025877773,2.745417965,-8.564956368,-22.69457049,-0.119539578
1.642677369,1.6378839,7.01639E-05,-0.001402088,,,2.033000323,3.819483734,-1.301628276,-3.258694439,-0.1273674
1.649413548,1.391093183,6.65022E-05,-0.001233302,,,2.036734966,1.180628804,-18.96073519,-50.2822441,0.928844005
1.655240506,1.140184163,6.02766E-05,-0.001045798,,,2.043119031,2.056703353,-13.7747373,-34.94926652,0.208967389
1.655240506,1.140184163,6.02766E-05,-0.001045798,,,2.046021188,0.866363969,-21.71801255,-55.7006444,1.212308955
1.662499335,3.094718292,5.88954E-05,-0.002711151,,,2.049392727,2.224054765,-12.44819241,-31.9871284,0.134990134
1.662499335,3.094718292,5.88954E-05,-0.002711151,,,2.050249201,0.158161502,-28.54893034,-67.77452484,1.740977431
1.66272089,0.887032598,5.14384E-05,-0.000840657,,,2.054604793,2.883747032,-7.576056903,-20.20600746,-0.174547915
1.66272089,0.887032598,5.14384E-05,-0.000840657,,,2.054742236,1.657052377,-15.05124413,-41.97270335,0.516935454
1.669392668,0.634246148,3.99197E-05,-0.000620146,,,2.055825066,1.567192657,-15.75794053,-43.54388194,0.595715492
1.676424788,3.868500199,3.8281E-05,-0.00298885,,,2.056380426,1.943694778,-12.87108997,-36.93773492,0.280594478
1.676424788,3.868500199,3.8281E-05,-0.00298885,,,2.0574013,3.56434159,-3.005236465,-7.88529822,-0.239578467
1.678428076,0.381036864,2.58249E-05,-0.000383873,,,2.059838164,3.655236638,-2.407297689,-6.235607307,-0.210614291
1.681683573,2,7.40191E-05,-0.001620733,,,2.061344925,2.947348589,-7.131814037,-19.06006357,-0.197322666
1.681683573,2,7.40191E-05,-0.001620733,,,2.062311336,1.515539895,-16.16444638,-44.44217547,0.644820749
1.682478301,2.470898512,7.36215E-05,-0.00218824,,,2.066183145,3.103270921,-6.064699692,-16.24516654,-0.242051945
1.682478301,2.470898512,7.36215E-05,-0.00218824,,,2.071048189,3.946312507,-0.470601981,-0.967300787,-0.043522197
1.684707844,3.350919278,5.16768E-05,-0.002848724,,,2.072273774,0.537885413,-24.7626091,-61.30467942,1.505411912
1.687473732,2.232938339,7.53297E-05,-0.001919746,,,2.07246642,0.483248076,-25.29038663,-62.23587917,1.547342887
1.687473732,2.232938339,7.53297E-05,-0.001919746,,,2.077304789,3.5260375,-3.261489809,-8.580922448,-0.251959593
1.689349662,3.60884658,4.41157E-05,-0.002941565,,,2.082264328,2.679256196,-9.014458679,-23.87441684,-0.085444118
1.689827113,0.127404747,9.22471E-06,-0.000132086,,,2.083642723,1.211052481,-18.65914921,-49.72275054,0.933028317
1.689827113,0.127404747,9.22471E-06,-0.000132086,,,2.085167292,1.414765485,-16.95983374,-46.18452217,0.74839956
1.694871614,2.717083735,7.02149E-05,-0.002426024,,,2.086502307,2.027311652,-13.99264371,-35.45227393,0.236761199
1.694871614,2.717083735,7.02149E-05,-0.002426024,,,2.09033307,3.383470516,-4.197885185,-11.16886464,-0.272520602
1.708150285,1.761112623,7.45669E-05,-0.001479956,,,2.091373616,0.839742479,-21.92052536,-56.12161398,1.272270188
1.708150285,1.761112623,7.45669E-05,-0.001479956,,,2.092875182,0.639436887,-23.77810629,-59.55228314,1.443429306
1.709169437,2.953171308,6.49369E-05,-0.002615532,,,2.09368088,0.185367291,-28.24510283,-67.27085538,1.772484977
1.709169437,2.953171308,6.49369E-05,-0.002615532,,,2.093778823,0.383150288,-26.25552767,-63.91868213,1.641899903
1.712119647,4,3.70337E-05,-0.002994904,,,2.095360081,3.284309814,-4.850804391,-12.96734037,-0.27209318
1.715795684,1.518440211,7.20485E-05,-0.001321825,,,2.095838537,3.787861953,-1.548941884,-3.831472996,-0.152196434
1.715795684,1.518440211,7.20485E-05,-0.001321825,,,2.097154775,1.973837117,-12.61678382,-36.39034638,0.272687655
1.721622643,1.267531191,6.68719E-05,-0.001142441,,,2.100403453,2.849970172,-7.794108585,-20.8101874,-0.160653786
1.721622643,1.267531191,6.68719E-05,-0.001142441,,,2.101793133,1.777518391,-14.08155637,-39.83798099,0.436071749
1.732404217,1.016647733,5.92326E-05,-0.00094717,,,2.102663698,3.424243733,-3.931579924,-10.42900125,-0.271520885
1.732404217,1.016647733,5.92326E-05,-0.00094717,,,2.107344364,1.058293065,-19.95470202,-52.34642249,1.089317918
1.736583411,0.761228061,4.83509E-05,-0.000732438,,,2.107718105,3.979497279,-0.274813835,-0.369232425,-0.017571569
1.736583411,0.761228061,4.83509E-05,-0.000732438,,,2.109232084,0.994408734,-20.51527908,-53.44650488,1.148829463
1.743255189,0.508441611,3.48943E-05,-0.000504348,,,2.110083133,2.159112672,-12.9289555,-33.11770169,0.184967998
1.743255189,0.508441611,3.48943E-05,-0.000504348,,,2.114679749,0.03215136,-29.82209967,-69.83401126,1.880606629
1.744463612,2.11646917,7.80553E-05,-0.001774212,,,2.115365914,2.333207739,-11.5703264,-30.03441316,0.098106898
1.748289253,3.221145793,5.79482E-05,-0.002784359,,,2.115629974,2.966966941,-6.978244251,-18.70353268,-0.205237034
1.748289253,3.221145793,5.79482E-05,-0.002784359,,,2.131708198,2.559513451,-9.861423206,-26.00625084,-0.01865467
1.750253771,2.349407509,7.82329E-05,-0.002055342,,,2.136788476,2.420132118,-10.89738867,-28.48598472,0.05704295
1.750253771,2.349407509,7.82329E-05,-0.002055342,,,2.140272461,2.468377878,-10.53288978,-27.62753288,0.031737717
1.753952712,2.591480207,7.55812E-05,-0.002309328,,,2.140692747,3.871187144,-1.026474101,-2.323909325,-0.103263162
1.753952712,2.591480207,7.55812E-05,-0.002309328,,,2.142429635,3.14155132,-5.790806857,-15.55099034,-0.256635367
1.754654226,0.254809494,1.87798E-05,-0.000260252,,,2.146628423,2.134353632,-13.10750931,-33.54198185,0.209647778
1.754654226,0.254809494,1.87798E-05,-0.000260252,,,2.149445069,2.872675249,-7.615390262,-20.3976417,-0.168738503
1.754801888,1.880556312,7.75484E-05,-0.001551739,,,2.151809798,2.736937823,-8.567813913,-22.83243205,-0.106666613
1.757572889,3.737000397,4.19321E-05,-0.002970249,,,2.153199184,3.475564175,-3.604027853,-9.497731507,-0.272941892
1.757572889,3.737000397,4.19321E-05,-0.002970249,,,2.157931458,2.926070462,-7.243190955,-19.43680995,-0.190295368
1.760416667,0,0,0,,,2.162991451,1.290171699,-17.91825091,-48.29454107,0.913142409
1.768250535,2.827567779,7.10687E-05,-0.002519005,,,2.163029026,1.094409314,-19.5882469,-51.67911901,1.097465787
1.770497762,3.477346779,4.98402E-05,-0.002899573,,,2.1630704,0.962806099,-20.74687082,-53.94612101,1.219968436
1.770497762,3.477346779,4.98402E-05,-0.002899573,,,2.163154932,0.770161405,-22.49603651,-57.25237623,1.394516762
1.7812686,1.641668935,7.70686E-05,-0.001403443,,,2.164683307,1.845906119,-13.51067185,-38.60697359,0.406980944
1.7812686,1.641668935,7.70686E-05,-0.001403443,,,2.164972557,0.254655077,-27.49348324,-66.02468469,1.805940403
1.788004779,1.394878218,7.31231E-05,-0.001234911,,,2.165408775,3.70592136,-2.121222995,-5.316957958,-0.203773469
1.788004779,1.394878218,7.31231E-05,-0.001234911,,,2.166237925,0.064447622,-29.45609774,-69.23307818,1.923714316
1.793267747,3.868500199,3.94477E-05,-0.002988003,,,2.171582824,3.899141398,-0.864282969,-1.818757042,-0.084841958
1.794959355,3.079598808,6.4501E-05,-0.002700936,,,2.193121573,2.756064172,-8.411913193,-22.48420434,-0.112214278
1.798786353,1.14399476,6.6578E-05,-0.001047685,,,2.193959926,3.629903738,-2.622309977,-6.696365789,-0.239784405
1.801453491,2,8.00484E-05,-0.001619742,,,2.195421351,2.300305188,-11.78034447,-30.59366141,0.13889532
1.801453491,2,8.00484E-05,-0.001619742,,,2.197565536,2.023006844,-13.97854865,-35.48189547,0.282447461
1.806266737,0.890843196,5.69058E-05,-0.000842897,,,2.199030885,1.871297482,-13.29132826,-38.14399196,0.401373498
1.807243651,2.232938339,8.16544E-05,-0.001918698,,,2.199234477,3.053180565,-6.365894946,-17.14421847,-0.236221866
1.810445931,0.635423524,4.40499E-05,-0.000620437,,,2.206538983,1.977960858,-12.49831513,-36.26908625,0.314822055
1.810445931,0.635423524,4.40499E-05,-0.000620437,,,2.210339672,1.672956553,-14.78902367,-41.60580101,0.583810421
1.81303381,2.465876679,8.05291E-05,-0.002181886,,,2.213389865,3.982728877,-0.34614907,-0.31097134,-0.016089333
1.81303381,2.465876679,8.05291E-05,-0.002181886,,,2.213863415,3.591599648,-2.873657496,-7.391708899,-0.255706032
1.81303381,2.465876679,8.05291E-05,-0.002181886,,,2.215766868,2.582047133,-9.650389706,-25.58761741,-0.015978012
1.81303381,2.465876679,8.05291E-05,-0.002181886,,,2.216863616,0.995420709,-20.40656152,-53.33812397,1.232573705
1.81303381,2.465876679,8.05291E-05,-0.002181886,,,2.218224842,0.032296262,-29.76676092,-69.71365331,2.002478924
1.81303381,2.465876679,8.05291E-05,-0.002181886,,,2.218709963,1.063139592,-19.80825965,-52.17115314,1.169578109
1.819481339,0.38221424,2.85524E-05,-0.000384477,,,2.220815211,2.107917884,-13.28162226,-33.97823613,0.251014818
1.819481339,0.38221424,2.85524E-05,-0.000384477,,,2.225789965,3.235206365,-5.158626883,-13.85446266,-0.281397268
1.82524378,0.127404747,1.01397E-05,-0.000131893,,,2.230683853,3.765194626,-1.774291386,-4.242744465,-0.180971754
1.827331634,2.701964251,7.70895E-05,-0.002411597,,,2.231966641,2.275546149,-11.95170669,-31.01880113,0.164657703
1.827920203,1.761112623,8.06336E-05,-0.0014789,,,2.233549151,0.640015999,-23.65332706,-59.40827284,1.573411963
1.828962606,4,3.76745E-05,-0.002993789,,,2.234452793,0.383729401,-26.14509553,-63.7642642,1.786655218
1.834079171,3.347573294,5.61259E-05,-0.002846436,,,2.234868485,3.018730107,-6.584807554,-17.76253299,-0.225362295
1.834079171,3.347573294,5.61259E-05,-0.002846436,,,2.234874924,0.84033323,-21.78585172,-55.98324912,1.393368476
1.838720989,3.605500596,4.69991E-05,-0.002939771,,,2.237182188,0.185958043,-28.14848444,-67.10462224,1.931985929
1.838720989,3.605500596,4.69991E-05,-0.002939771,,,2.240734193,3.918986583,-0.789489016,-1.460477784,-0.073042882
1.841629457,2.938051824,7.11769E-05,-0.002603645,,,2.240764728,1.430669662,-16.68453701,-45.80012142,0.830539566
1.841629457,2.938051824,7.11769E-05,-0.002603645,,,2.242367438,1.227276308,-18.37185663,-49.31987319,1.028923369
1.854386915,1.522225246,7.89531E-05,-0.001323169,,,2.254239606,0.538634512,-24.60764246,-61.11306834,1.681046486
1.854386915,1.522225246,7.89531E-05,-0.001323169,,,2.254432252,0.483997174,-25.13930702,-62.04136288,1.727052254
1.854386915,1.522225246,7.89531E-05,-0.001323169,,,2.255249939,2.407675021,-10.92436331,-28.67416633,0.095026444
1.854386915,1.522225246,7.89531E-05,-0.001323169,,,2.257078643,2.601173482,-9.487268803,-25.23763978,-0.018960879
1.854386915,1.522225246,7.89531E-05,-0.001323169,,,2.257094832,1.587765168,-15.41111361,-43.05884266,0.690306613
1.854386915,1.522225246,7.89531E-05,-0.001323169,,,2.258769795,3.526248897,-3.299510873,-8.577972676,-0.279662143
1.86423353,2.11646917,8.4361E-05,-0.00177305,,,2.259047883,3.31995379,-4.608366176,-12.31926734,-0.294243767
1.86516849,1.271341788,7.35994E-05,-0.001144051,,,2.259385813,2.46494804,-10.49078845,-27.65781326,0.062018469
1.870023689,2.349407509,8.4696E-05,-0.002054164,,,2.26157393,3.79314888,-1.614806737,-3.73645834,-0.167582747
1.870023689,2.349407509,8.4696E-05,-0.002054164,,,2.262906836,1.896621304,-13.0478641,-37.66545022,0.410453938
1.874415847,3.737000397,4.34225E-05,-0.002969329,,,2.263581102,1.536112406,-15.81399014,-43.95227319,0.743608513
1.874571806,1.880556312,8.36935E-05,-0.001550597,,,2.267127157,2.85711057,-7.669835874,-20.66326068,-0.155750398
1.875950064,1.02045833,6.52724E-05,-0.000949119,,,2.27137851,3.360727007,-4.347775641,-11.58025265,-0.297391178
1.875950064,1.02045833,6.52724E-05,-0.000949119,,,2.274275938,2.902089735,-7.357879892,-19.85551019,-0.176566823
1.880129258,0.765038659,5.33932E-05,-0.000734796,,,2.276044894,2.768971892,-8.278171089,-22.23986536,-0.109916016
1.880749273,3.206026309,6.30696E-05,-0.002775266,,,2.280189361,0.86780719,-21.49263417,-55.46822489,1.406987722
1.884308452,0.509618987,3.8429E-05,-0.000504733,,,2.280975031,0.158874317,-28.40024922,-67.50922444,2.000201115
1.884308452,0.509618987,3.8429E-05,-0.000504733,,,2.283629068,3.426460726,-3.931954575,-10.388389,-0.297261497
1.884308452,0.509618987,3.8429E-05,-0.000504733,,,2.286788398,2.217070858,-12.37799653,-32.02863378,0.218037033
1.884308452,0.509618987,3.8429E-05,-0.000504733,,,2.289272056,1.200935258,-18.54965689,-49.7339122,1.089451702
1.884308452,0.509618987,3.8429E-05,-0.000504733,,,2.294745092,3.682839827,-2.328745598,-5.736348576,-0.23255768
1.884308452,0.509618987,3.8429E-05,-0.000504733,,,2.298633214,2.378283321,-11.12144531,-29.17979196,0.126039984
1.886412732,2.576360723,8.27904E-05,-0.002293372,,,2.305091382,1.710652371,-14.41023132,-40.88590809,0.602392797
1.886412732,2.576360723,8.27904E-05,-0.002293372,,,2.307063465,3.174326062,-5.537179012,-14.95135556,-0.275526369
1.890070893,0.254809494,2.05798E-05,-0.000259864,,,2.308427429,2.487653117,-10.29153847,-27.24050307,0.061358483
1.895833333,0,0,0,,,2.309577582,2.979955036,-6.815556619,-18.45275188,-0.20956761
1.900710555,2.812448296,7.78393E-05,-0.002505564,,,2.31030443,3.83704599,-1.369774373,-2.941800381,-0.142665595
1.901038518,1.641668935,8.31675E-05,-0.001402259,,,2.318372721,3.637368662,-2.62218851,-6.561379061,-0.255274926
1.901038518,1.641668935,8.31675E-05,-0.001402259,,,2.325488764,2.649229147,-9.099602776,-24.36559502,-0.033856591
1.910110706,3.868500199,4.02769E-05,-0.002986835,,,2.325931875,0.671986399,-23.26708599,-58.76519214,1.632877821
1.919869089,3.474000795,5.345E-05,-0.002897275,,,2.327056874,0.352919399,-26.38086535,-64.17956848,1.910160937
1.919869089,3.474000795,5.345E-05,-0.002897275,,,2.331415008,3.716024598,-2.140050535,-5.134520112,-0.22123203
1.919869089,3.474000795,5.345E-05,-0.002897275,,,2.336721921,2.107917884,-13.22023318,-33.92348936,0.301000577
1.919869089,3.474000795,5.345E-05,-0.002897275,,,2.33943896,1.736043734,-14.18357416,-40.41948697,0.598525436
1.919869089,3.474000795,5.345E-05,-0.002897275,,,2.342697474,3.139875604,-5.750518483,-15.57048895,-0.267804927
1.919869089,3.474000795,5.345E-05,-0.002897275,,,2.342969412,1.409014469,-16.76053405,-46.09228172,0.920937934
1.919869089,3.474000795,5.345E-05,-0.002897275,,,2.344135301,2.403440937,-10.90168653,-28.71854071,0.125196555
1.921223409,2,8.62248E-05,-0.001618507,,,2.346914747,3.541509292,-3.223917282,-8.300764307,-0.289180094
1.921223409,2,8.62248E-05,-0.001618507,,,2.347494203,2.023006844,-13.90600983,-35.40523917,0.351380905
1.927013569,2.232938339,8.81881E-05,-0.001917367,,,2.349419021,0.02720579,-29.74658237,-69.63433947,2.165246488
1.927013569,2.232938339,8.81881E-05,-0.001917367,,,2.349793641,2.455537715,-10.50527912,-27.79545073,0.093684534
1.927419375,3.064479325,7.03798E-05,-0.002690165,,,2.350202904,2.275546149,-11.88160502,-30.97163894,0.208022168
1.931550626,1.398688816,8.0213E-05,-0.001236228,,,2.351287766,3.918986583,-0.885463765,-1.460633814,-0.079076289
1.931550626,1.398688816,8.0213E-05,-0.001236228,,,2.355997445,1.000182836,-20.22879055,-53.12233693,1.342882771
1.935437,2.457634165,8.73103E-05,-0.002171838,,,2.356394097,3.982728877,-0.484930539,-0.311004109,-0.01791633
1.935437,2.457634165,8.73103E-05,-0.002171838,,,2.356467651,1.977960858,-12.37070453,-36.18783918,0.386730686
1.9423322,1.147805358,7.31151E-05,-0.001049334,,,2.357552774,1.057228004,-19.72381694,-52.14173706,1.286958362
1.945805565,4,3.78862E-05,-0.002992313,,,2.370391038,0.127613818,-28.66733909,-67.92211918,2.126858579
1.947690121,1.761112623,8.68581E-05,-0.001477611,,,2.370849718,0.325835672,-26.61935536,-64.58335873,1.980161287
1.947690121,1.761112623,8.68581E-05,-0.001477611,,,2.371246312,0.699460359,-22.96519572,-58.24616082,1.65085388
1.949812584,0.894653793,6.25954E-05,-0.000844942,,,2.371453376,1.792059466,-13.72906454,-39.42124679,0.564408021
1.953991778,0.639234122,4.85822E-05,-0.000622946,,,2.372225052,3.646633118,-2.586503577,-6.393306136,-0.259346856
1.953991778,0.639234122,4.85822E-05,-0.000622946,,,2.374349468,3.79314888,-1.688805139,-3.736694507,-0.18039317
1.954898006,0.38221424,3.11998E-05,-0.00038389,,,2.37571073,0.899033126,-21.11618545,-54.83406238,1.46088233
1.954898006,0.38221424,3.11998E-05,-0.00038389,,,2.376259526,3.692104283,-2.310183834,-5.568404762,-0.239526283
1.955563948,3.605500596,4.89843E-05,-0.002938715,,,2.378813546,1.896621304,-12.94425635,-37.59389814,0.471549651
1.955563948,3.605500596,4.89843E-05,-0.002938715,,,2.379070934,3.412430418,-4.024294065,-10.64096649,-0.310144293
1.959791653,2.686844767,8.43071E-05,-0.002396593,,,2.381521845,2.580070483,-9.564555142,-25.57872296,0.022250289
1.959791653,2.686844767,8.43071E-05,-0.002396593,,,2.383006292,1.166614102,-18.74882303,-50.23610784,1.196706983
1.960660446,0.127404747,1.10916E-05,-0.000131673,,,2.383667692,3.268106395,-4.922822414,-13.25260252,-0.300072143
1.966539191,3.33245381,6.06111E-05,-0.002838407,,,2.388533042,2.296738472,-11.69243371,-30.58137786,0.209988386
1.966539191,3.33245381,6.06111E-05,-0.002838407,,,2.389416743,0.544335138,-24.43368638,-60.86211858,1.81298852
1.974089477,2.92293234,7.77435E-05,-0.002591165,,,2.389645435,0.479474614,-25.06823369,-61.96156072,1.871178607
1.974089477,2.92293234,7.77435E-05,-0.002591165,,,2.38987403,1.382673419,-16.92868528,-46.50548795,0.981087603
1.984003448,2.11646917,9.08545E-05,-0.0017716,,,2.392278982,3.549313503,-3.18690766,-8.158900136,-0.293781758
1.984003448,2.11646917,9.08545E-05,-0.0017716,,,2.392937912,3.073610081,-6.163328092,-16.75899392,-0.245803512
1.991258806,3.737000397,4.46428E-05,-0.002968053,,,2.39803625,2.748284676,-8.353619167,-22.58321867,-0.079995974
1.991258806,3.737000397,4.46428E-05,-0.002968053,,,2.398305502,3.316508684,-4.617923716,-12.37666765,-0.308058024
1.99242688,2.341164996,9.15938E-05,-0.002043284,,,2.405402157,1.607485503,-15.11197905,-42.60163062,0.764884578
1.994341724,1.880556312,8.99948E-05,-0.001549197,,,2.412125682,3.772998838,-1.837333514,-4.101866249,-0.198175539
1.994341724,1.880556312,8.99948E-05,-0.001549197,,,2.413102072,1.546167998,-15.58687295,-43.65731857,0.831555611
2.008663886,1.537994453,8.7121E-05,-0.001332159,,,2.414793354,2.134353632,-12.96203785,-33.41783872,0.322996396
2.008663886,1.537994453,8.7121E-05,-0.001332159,,,2.416367998,2.553017047,-9.739178336,-26.04655551,0.049674862
2.008714336,1.275152386,8.05696E-05,-0.001145383,,,2.424435169,3.420234629,-3.977547024,-10.49813634,-0.31514678
2.008714336,1.275152386,8.05696E-05,-0.001145383,,,2.42492649,2.83035106,-7.7697892,-21.11303363,-0.124293951
2.008815922,2.56811821,8.96464E-05,-0.002283746,,,2.425969176,3.227209915,-5.171322714,-13.98831705,-0.294388097
2.013209293,3.190906825,6.84332E-05,-0.002765559,,,2.427362594,3.899141398,-1.078152623,-1.819127822,-0.10171331
2.013209293,3.190906825,6.84332E-05,-0.002765559,,,2.431568938,2.95926782,-6.89728165,-18.80610124,-0.193316578
2.019495911,1.024268928,7.15465E-05,-0.000950832,,,2.432075271,2.875330225,-7.459545025,-20.30802678,-0.148895322
2.019495911,1.024268928,7.15465E-05,-0.000950832,,,2.439871274,0.256688142,-27.27130995,-65.65918621,2.11409761
2.023675105,0.768849256,5.86498E-05,-0.00073697,,,2.441632352,0.447323254,-25.3402769,-62.44011232,1.955367049
2.023675105,0.768849256,5.86498E-05,-0.00073697,,,2.443209959,0.576949748,-24.06758339,-60.24221544,1.838472871
2.023788603,0.510193185,4.20258E-05,-0.00050445,,,2.44610495,0.76888772,-22.24180813,-56.97522065,1.655533759
2.023788603,0.510193185,4.20258E-05,-0.00050445,,,2.446176506,1.637627841,-14.83639546,-42.04431949,0.762006583
2.024543783,3.524255385,5.35638E-05,-0.002913538,,,2.452157833,3.325773141,-4.554546314,-12.2062825,-0.313517515
2.024543783,3.524255385,5.35638E-05,-0.002913538,,,2.453123492,2.155545956,-12.76786415,-33.02464548,0.329157778
2.025487559,0.254809494,2.24497E-05,-0.000259422,,,2.455804089,2.399303479,-10.85889134,-28.74494657,0.168215671
2.025487559,0.254809494,2.24497E-05,-0.000259422,,,2.457675223,1.736043734,-14.0693357,-40.32812255,0.671757061
2.026953665,3.868500199,4.07363E-05,-0.002985276,,,2.459190009,2.027311652,-13.81105026,-35.26066234,0.408233875
2.026953665,3.868500199,4.07363E-05,-0.002985276,,,2.460570573,2.443188866,-10.52380364,-27.96952282,0.139514715
2.03125,0,0,0,,,2.460779569,1.307112064,-17.48012613,-47.7389044,1.11281499
2.033170575,2.797328812,8.4971E-05,-0.002491489,,,2.463193276,3.979497279,-0.618373285,-0.369190962,-0.02293938
2.033170575,2.797328812,8.4971E-05,-0.002491489,,,2.465138808,3.878991356,-1.234869829,-2.183262532,-0.122515554
2.040993327,2,9.25539E-05,-0.001616988,,,2.466583044,2.316477394,-11.48739002,-30.19626314,0.22975948
2.040993327,2,9.25539E-05,-0.001616988,,,2.467140676,3.118772605,-5.844306695,-15.93743122,-0.261835138
2.040993327,2,9.25539E-05,-0.001616988,,,2.467195815,1.871297482,-13.04839846,-37.97135907,0.546907217
2.040993327,2,9.25539E-05,-0.001616988,,,2.468783009,1.514898276,-15.77852544,-44.14713978,0.902674256
2.040993327,2,9.25539E-05,-0.001616988,,,2.469842477,1.973837117,-12.2990634,-36.1851645,0.452998733
2.040993327,2,9.25539E-05,-0.001616988,,,2.471559177,3.562856002,-3.125000168,-7.912260153,-0.301192817
2.04919209,3.425314058,5.86375E-05,-0.002877338,,,2.475364108,2.708201662,-8.585629564,-23.27442485,-0.038481876
2.04919209,3.425314058,5.86375E-05,-0.002877338,,,2.475678315,3.2439351,-5.055186098,-13.68222662,-0.30038232
2.049416759,2.224695826,9.50826E-05,-0.00190569,,,2.478778047,3.637174091,-2.686295255,-6.564402087,-0.278028474
2.055315489,1.657438142,9.14774E-05,-0.001410599,,,2.482176615,3.675478181,-2.461140208,-5.869775514,-0.261959221
2.05784019,2.449391652,9.43675E-05,-0.002161353,,,2.487229162,3.294096036,-4.74373011,-12.77609193,-0.311177657
2.05784019,2.449391652,9.43675E-05,-0.002161353,,,2.487500792,3.742528464,-2.067497132,-4.654121995,-0.22663991
2.059879395,3.049359841,7.65756E-05,-0.002678736,,,2.488941125,2.52232997,-9.914545431,-26.5609436,0.093885311
2.059879395,3.049359841,7.65756E-05,-0.002678736,,,2.493829619,0.479317123,-24.97585854,-61.82992006,1.983105261
2.060238641,3.655755186,4.84599E-05,-0.002950192,,,2.495635918,0.544083093,-24.3376349,-60.73133956,1.92443547
2.062648523,4,3.7624E-05,-0.002990403,,,2.496418451,3.463067831,-3.723075222,-9.719903438,-0.320879095
2.062648523,4,3.7624E-05,-0.002990403,,,2.503005942,1.637627841,-14.77886713,-41.99302499,0.801099628
2.062648523,4,3.7624E-05,-0.002990403,,,2.504692095,2.052469269,-13.57698436,-34.79090643,0.419739791
2.082194844,2.678602254,9.11554E-05,-0.002387367,,,2.505547317,1.736043734,-14.02187614,-40.28699437,0.703441023
2.085827597,1.414458023,8.84096E-05,-0.00124557,,,2.506966744,0.127613818,-28.57037006,-67.7322838,2.294140052
2.085878047,1.151615956,7.98952E-05,-0.001050707,,,2.508037793,3.955576964,-0.81345775,-0.800373053,-0.050035271
2.085878047,1.151615956,7.98952E-05,-0.001050707,,,2.50901476,3.1328616,-5.739276408,-15.67843618,-0.266260424
2.093358431,0.898464391,6.85139E-05,-0.000846761,,,2.510170393,0.325835672,-26.50366999,-64.39781862,2.138580049
2.093358431,0.898464391,6.85139E-05,-0.000846761,,,2.510210261,2.681148226,-8.752804092,-23.74268693,-0.011350833
2.093471929,0.63980832,5.29708E-05,-0.000622413,,,2.515067909,1.871297482,-13.00264165,-37.933276,0.576953377
2.094378156,0.382788438,3.40762E-05,-0.000383748,,,2.516516566,2.207324419,-12.31187214,-32.08048304,0.32792037
2.095862192,3.283767073,6.68721E-05,-0.002813496,,,2.517111021,2.970867597,-6.776608351,-18.58149388,-0.19091099
2.0959335,3.787254988,4.35732E-05,-0.002974686,,,2.518863435,0.699074869,-22.82468739,-58.07121297,1.796987589
2.096077113,0.127404747,1.20815E-05,-0.000131424,,,2.520419422,0.898655231,-20.97211056,-54.67113436,1.593707398
2.096077113,0.127404747,1.20815E-05,-0.000131424,,,2.525535613,1.545943966,-15.47325421,-43.55540858,0.911952376
2.101967092,1.77688183,9.52434E-05,-0.001485287,,,2.526083631,0.02720579,-29.63443279,-69.38326425,2.389852263
2.106406638,2.108226656,9.7611E-05,-0.00175918,,,2.526671914,1.973837117,-12.24671479,-36.14291402,0.487225626
2.106406638,2.108226656,9.7611E-05,-0.00175918,,,2.527714984,1.166236207,-18.60078227,-50.08547169,1.31672966
2.106549497,2.907812856,8.46794E-05,-0.00257799,,,2.528484129,3.824469058,-1.613322367,-3.169706663,-0.17411294
2.106549497,2.907812856,8.46794E-05,-0.00257799,,,2.536293143,3.406301451,-4.061723144,-10.745323,-0.326174458
2.106549497,2.907812856,8.46794E-05,-0.00257799,,,2.537491153,1.382287929,-16.77790452,-46.36329978,1.093816081
2.106549497,2.907812856,8.46794E-05,-0.00257799,,,2.538456927,1.607356026,-14.97775261,-42.48224379,0.857591795
2.106549497,2.907812856,8.46794E-05,-0.00257799,,,2.54169741,2.806157348,-7.863020432,-21.51234304,-0.088080584
2.106549497,2.907812856,8.46794E-05,-0.00257799,,,2.543182306,0.999694017,-20.03978861,-52.91743048,1.508209598
2.11483007,2.332922482,9.87491E-05,-0.002031958,,,2.544243417,3.976079685,-0.730261372,-0.430819148,-0.028192405
2.129218477,3.574509975,5.30777E-05,-0.002927644,,,2.544737635,1.056739186,-19.53375705,-51.9402704,1.448732625
2.129218477,3.574509975,5.30777E-05,-0.002927644,,,2.545014086,2.025157617,-13.77993077,-35.23670428,0.459810022
2.131219112,2.559875696,9.68068E-05,-0.002273625,,,2.550183799,2.85955256,-7.495811125,-20.55954388,-0.120727201
2.131628359,3.918754789,3.9261E-05,-0.002987013,,,2.554140431,0.352786731,-26.19034681,-63.88075922,2.165840176
2.131628359,3.918754789,3.9261E-05,-0.002987013,,,2.558985104,2.984956592,-6.661955377,-18.31995165,-0.193448885
2.142532294,3.142220089,7.5659E-05,-0.002735622,,,2.561488611,2.621385499,-9.141690635,-24.78020335,0.046664026
2.148618695,1.896325519,9.83892E-05,-0.001556195,,,2.563026119,0.67138859,-23.0431778,-58.48187293,1.870015409
2.148618695,1.896325519,9.83892E-05,-0.001556195,,,2.565836599,3.379617228,-4.218312375,-11.22560318,-0.32689598
2.153866784,3.475568648,5.85404E-05,-0.002894852,,,2.571331651,2.146764174,-12.76228762,-33.10073909,0.39868587
2.155573765,2.789086298,9.17137E-05,-0.002482635,,,2.576996782,3.865058178,-1.417797425,-2.435331045,-0.144230657
2.155573765,2.789086298,9.17137E-05,-0.002482635,,,2.581213266,3.549197343,-3.230857594,-8.157109725,-0.317819202
2.155916404,2,9.87744E-05,-0.001615225,,,2.582462203,2.307868636,-11.47185292,-30.28074829,0.290513354
2.155916404,2,9.87744E-05,-0.001615225,,,2.583063622,2.774041946,-8.054911393,-22.06869499,-0.056565848
2.162940857,1.55376366,9.5597E-05,-0.001340645,,,2.585298525,1.408440259,-16.51305773,-45.86003684,1.104009808
2.162940857,1.55376366,9.5597E-05,-0.001340645,,,2.587230588,3.22215145,-5.158471668,-14.06179109,-0.295811793
2.162991307,1.290921593,8.87307E-05,-0.001155098,,,2.589356094,3.139697131,-5.664542115,-15.54263095,-0.265548512
2.163041758,1.028079526,7.80604E-05,-0.000952276,,,2.596006341,1.792059466,-13.50966694,-39.23405178,0.709747374
2.163041758,1.028079526,7.80604E-05,-0.000952276,,,2.596960316,0.158874317,-28.16883233,-67.0723433,2.382678157
2.163041758,1.028079526,7.80604E-05,-0.000952276,,,2.596960814,3.26440612,-4.900014727,-13.30013846,-0.307958528
2.163041758,1.028079526,7.80604E-05,-0.000952276,,,2.597154881,3.728869805,-2.212466641,-4.901140257,-0.248401702
2.163041758,1.028079526,7.80604E-05,-0.000952276,,,2.599892938,2.876277745,-7.352157314,-20.24652926,-0.121448635
2.163041758,1.028079526,7.80604E-05,-0.000952276,,,2.603366511,1.896621304,-12.73168037,-37.41799844,0.610946708
2.163155256,0.769423454,6.37725E-05,-0.000736169,,,2.604820285,2.513721212,-9.892109911,-26.6571879,0.14410947
2.163268754,0.510767383,4.57616E-05,-0.000504038,,,2.605298171,2.12375733,-12.92700995,-33.47604356,0.434304976
2.163268754,0.510767383,4.57616E-05,-0.000504038,,,2.60569712,2.388167802,-10.83435342,-28.86053932,0.241422143
2.164913335,3.706009777,4.72886E-05,-0.00295945,,,2.607495747,3.882329301,-1.346674454,-2.122911479,-0.13056177
2.16496771,0.255383691,2.45022E-05,-0.00025947,,,2.610463604,2.43205319,-10.49738443,-28.0883895,0.209818709
2.166666667,0,0,0,,,2.614991345,0.866932881,-21.16140383,-55.08698176,1.718030872
2.166666667,0,0,0,,,2.618998802,1.736043734,-13.90676366,-40.17909714,0.783474121
2.166666667,0,0,0,,,2.62061877,3.619506222,-2.841591119,-6.882467985,-0.302642547
2.171819949,2.216453313,0.0001022,-0.001893569,,,2.624017338,3.657810312,-2.627293211,-6.188398583,-0.287960957
2.171819949,2.216453313,0.0001022,-0.001893569,,,2.62407404,1.200060949,-18.20696899,-49.38810127,1.363641551
2.172263893,4,3.69054E-05,-0.002988139,,,2.627622627,0.483222433,-24.80988117,-61.5726822,2.127387978
2.178515092,3.376627321,6.44558E-05,-0.002855199,,,2.62798712,3.02535487,-6.36435851,-17.58096925,-0.206411994
2.178515092,3.376627321,6.44558E-05,-0.002855199,,,2.62841842,2.672366445,-8.729142457,-23.84962637,0.031027459
2.18024338,2.441149139,0.000101719,-0.002150365,,,2.62914422,0.537780119,-24.26938308,-60.64906523,2.075119021
2.18024338,2.441149139,0.000101719,-0.002150365,,,2.629547911,2.794842893,-7.88002487,-21.68208816,-0.058879501
2.189202396,3.000673104,8.46067E-05,-0.002643752,,,2.634997529,3.337900519,-4.455243494,-11.97177742,-0.324532183
2.189202396,3.000673104,8.46067E-05,-0.002643752,,,2.636027493,1.977960858,-12.11410792,-35.98021919,0.554633454
2.200608194,3.837509578,4.18302E-05,-0.002979034,,,2.637890838,2.843683479,-7.544452258,-20.81256065,-0.090914857
2.200608194,3.837509578,4.18302E-05,-0.002979034,,,2.640930354,0.185825376,-27.84710152,-66.55136799,2.415804974
2.204598034,2.670359741,9.83291E-05,-0.002377583,,,2.643244361,3.979849957,-0.82600766,-0.362838865,-0.025330032
2.204598034,2.670359741,9.83291E-05,-0.002377583,,,2.645977678,3.517712456,-3.421564881,-8.724222087,-0.329794812
2.20959246,1.673207349,0.00010008,-0.001418384,,,2.646120918,0.383107099,-25.79756763,-63.2314383,2.245030628
2.221329714,2.108226656,0.000104212,-0.001757103,,,2.648862074,1.710543302,-14.06889061,-40.58777752,0.832230986
2.225185194,3.235080337,7.38287E-05,-0.002786311,,,2.651478609,2.021192323,-13.74844728,-35.21785107,0.531099594
2.227505583,2.8873012,9.16649E-05,-0.002560108,,,2.653258236,0.639020079,-23.26057483,-58.90059234,1.998129457
2.227505583,2.8873012,9.16649E-05,-0.002560108,,,2.656634232,2.276821014,-11.65948928,-30.7723611,0.353711361
2.232838582,0.899038589,7.43086E-05,-0.000845673,,,2.65737186,0.032296262,-29.48543036,-69.08843157,2.559577043
2.232838582,0.899038589,7.43086E-05,-0.000845673,,,2.659154029,0.839246603,-21.36823987,-55.49526686,1.791633829
2.23295208,0.640382517,5.75208E-05,-0.000621712,,,2.665824379,3.74139779,-2.184248628,-4.673493013,-0.248692338
2.233858307,0.383362636,3.70671E-05,-0.000383504,,,2.667575948,2.689888788,-8.576021384,-23.52163065,0.031178468
2.23389317,3.624764565,5.19127E-05,-0.002939502,,,2.669055912,1.535395821,-15.40404182,-43.57997993,1.034547622
2.23389317,3.624764565,5.19127E-05,-0.002939502,,,2.671545199,3.905482475,-1.280244546,-1.704560478,-0.111826049
2.235557264,0.127978945,1.31991E-05,-0.000131717,,,2.671881412,1.226213279,-17.93192313,-48.87822115,1.377164716
2.235557264,0.127978945,1.31991E-05,-0.000131717,,,2.675521135,3.491028233,-3.574970683,-9.204842981,-0.33493632
2.23723326,2.324679969,0.000106173,-0.002020124,,,2.675842846,2.099406536,-13.07914707,-33.84125149,0.49576917
2.23723326,2.324679969,0.000106173,-0.002020124,,,2.676608385,2.957606072,-6.769537876,-18.77424305,-0.157781217
2.240104567,1.43022723,9.69317E-05,-0.001254398,,,2.679940595,1.587128235,-14.98593096,-42.67769806,0.987482769
2.240155018,1.167385163,8.795E-05,-0.001060822,,,2.682161527,0.99420562,-19.9377368,-52.82507636,1.644444679
2.240155018,1.167385163,8.795E-05,-0.001060822,,,2.684007874,1.061924504,-19.3362017,-51.66800245,1.571049134
2.241243728,3.918754789,3.86671E-05,-0.00298457,,,2.684469187,2.533099588,-9.686313313,-26.27137803,0.163119286
2.253622302,2.551633183,0.000104294,-0.002262933,,,2.685028942,1.429784433,-16.2311874,-45.37376842,1.163164478
2.253622302,2.551633183,0.000104294,-0.002262933,,,2.690600751,2.25381417,-11.81541144,-31.14721867,0.391258201
2.256244063,1.792651037,0.000103903,-0.001492356,,,2.696323344,3.758668914,-2.109579791,-4.360574667,-0.240802915
2.256244063,1.792651037,0.000103903,-0.001492356,,,2.704661899,3.112885485,-5.776850655,-15.99722587,-0.242297552
2.258541478,3.525823239,5.77802E-05,-0.002910128,,,2.708617132,2.930149249,-6.926083989,-19.25085456,-0.132600043
2.263541771,1.896325519,0.000104787,-0.001554143,,,2.709569128,0.064290131,-29.09569091,-68.46633127,2.604774737
2.269588029,3.756264367,4.53908E-05,-0.002966391,,,2.713216388,0.254032776,-27.06566088,-65.28988802,2.446372251
2.269588029,3.756264367,4.53908E-05,-0.002966391,,,2.714582715,1.896621304,-12.62136581,-37.30940978,0.691043568
2.27083948,2,0.000105142,-0.00161312,,,2.716734417,2.375760242,-10.84116419,-29.00257264,0.308669227
2.27083948,2,0.000105142,-0.00161312,,,2.719792345,3.424030032,-3.950753969,-10.41003004,-0.337177045
2.271855296,3.093533352,8.36013E-05,-0.002703353,,,2.722392758,2.42785702,-10.43912601,-28.0889662,0.268605728
2.271855296,3.093533352,8.36013E-05,-0.002703353,,,2.723626715,2.550621931,-9.52583888,-25.93963016,0.16664815
2.276529851,2.768574643,9.91809E-05,-0.002462801,,,2.724808009,3.602714916,-2.967968409,-7.182859522,-0.318674819
2.281879262,4,3.56855E-05,-0.002985336,,,2.727572708,0.768787589,-21.94882477,-56.58823795,1.938410686
2.283189785,3.426881912,6.41985E-05,-0.002873867,,,2.728842483,3.648186081,-2.724033009,-6.360098743,-0.303380475
2.286743025,2.216453313,0.000109134,-0.001891166,,,2.734587486,0.961338965,-20.17359302,-53.30743266,1.73221253
2.302083333,0,0,0,,,2.736085572,1.672444944,-14.26667438,-41.14418905,0.941263175
2.302635406,0.769997652,6.90753E-05,-0.000735158,,,2.736381968,3.187469814,-5.311196603,-14.65577081,-0.273802151
2.302635406,0.769997652,6.90753E-05,-0.000735158,,,2.738879437,2.783473882,-7.875788727,-21.83442741,-0.01663911
2.30264657,2.432906625,0.00010938,-0.0021388,,,2.740215951,3.809883222,-1.866365492,-3.433041099,-0.207068129
2.30264657,2.432906625,0.00010938,-0.0021388,,,2.740760478,1.092970193,-19.0006887,-51.05676033,1.590115289
2.30264657,2.432906625,0.00010938,-0.0021388,,,2.741788483,2.199950752,-12.20757998,-32.04008615,0.465326821
2.30264657,2.432906625,0.00010938,-0.0021388,,,2.745164282,2.703577309,-8.418890849,-23.2394845,0.049427726
2.30264657,2.432906625,0.00010938,-0.0021388,,,2.745907368,2.824616313,-7.593570853,-21.10423114,-0.045969149
2.30264657,2.432906625,0.00010938,-0.0021388,,,2.746112194,3.229724484,-5.057421435,-13.89718794,-0.290385965
2.302748904,0.511341581,4.96376E-05,-0.000503485,,,2.750303334,3.311088874,-4.584683061,-12.43746785,-0.317120081
2.302748904,0.511341581,4.96376E-05,-0.000503485,,,2.751964357,1.288908576,-17.31472802,-47.69621732,1.379102104
2.304447861,0.255957889,2.66399E-05,-0.000259446,,,2.757056409,2.34844859,-11.01855015,-29.44723007,0.354501453
2.304447861,0.255957889,2.66399E-05,-0.000259446,,,2.759879338,3.571037812,-3.147602514,-7.753684017,-0.329385001
2.306522391,1.027704837,8.45975E-05,-0.000950054,,,2.7605306,0.031993869,-29.40866522,-68.91355144,2.69972201
2.306522391,1.027704837,8.45975E-05,-0.000950054,,,2.765048106,3.668688802,-2.629910751,-5.987834365,-0.298120361
2.307838093,3.327940585,7.10101E-05,-0.002830712,,,2.768877047,2.448657967,-10.24284269,-27.69151995,0.276137295
2.307838093,3.327940585,7.10101E-05,-0.002830712,,,2.772380757,1.871297482,-12.74640303,-37.68226135,0.761572998
2.310158482,2.980161448,9.14634E-05,-0.002626785,,,2.775260227,3.905482475,-1.39230235,-1.704568818,-0.118306574
2.310223563,3.837509578,4.14792E-05,-0.002976368,,,2.77578942,3.070829443,-5.995517284,-16.72557053,-0.20720074
2.317217828,1.569532867,0.000104382,-0.00134854,,,2.777402739,3.979849957,-0.998457787,-0.362875771,-0.027538341
2.317217828,1.569532867,0.000104382,-0.00134854,,,2.778130103,2.896563536,-7.095021957,-19.81673938,-0.089750021
2.317268278,1.3066908,9.72314E-05,-0.001164295,,,2.779888856,1.977960858,-11.97411044,-35.83802,0.660037239
2.317268278,1.3066908,9.72314E-05,-0.001164295,,,2.78285654,0.18459255,-27.73569049,-66.33017505,2.598381824
2.32555412,2.649848085,0.000106144,-0.002355821,,,2.785250798,0.381898564,-25.67403325,-63.02157407,2.41171065
2.336252791,2.108226656,0.000111007,-0.001754622,,,2.78705905,2.099406536,-12.99933138,-33.73683287,0.573516432
2.338567864,3.675019156,4.99813E-05,-0.00294901,,,2.787972578,0.992571378,-19.83355834,-52.69375647,1.750001046
2.338567864,3.675019156,4.99813E-05,-0.00294901,,,2.788495955,2.595913022,-9.142911272,-25.10293194,0.159028402
2.338567864,3.675019156,4.99813E-05,-0.00294901,,,2.792299223,1.056483723,-19.26200739,-51.59985672,1.681460154
2.338567864,3.675019156,4.99813E-05,-0.00294901,,,2.792388116,0.637811543,-23.12432175,-58.6990317,2.151158128
2.338567864,3.675019156,4.99813E-05,-0.00294901,,,2.793144416,3.463677713,-3.728499629,-9.687329956,-0.340311913
2.348461669,2.866789544,9.90767E-05,-0.002541289,,,2.795339972,2.021192323,-13.65361858,-35.07689925,0.635971284
2.348461669,2.866789544,9.90767E-05,-0.002541289,,,2.801067766,2.371887042,-10.7998122,-29.00282227,0.361059098
2.350859098,3.918754789,3.76165E-05,-0.002981542,,,2.801080214,0.838013778,-21.22288285,-55.29666428,1.938488612
2.352156336,2.324679969,0.000113377,-0.002017375,,,2.802122891,3.758668914,-2.181112098,-4.358902642,-0.251313709
2.352156336,2.324679969,0.000113377,-0.002017375,,,2.802244029,1.84579705,-12.90137803,-38.085652,0.812045891
2.354508195,3.1863936,8.15651E-05,-0.002756707,,,2.804052237,2.25381417,-11.72424891,-31.04971252,0.463365801
2.354508195,3.1863936,8.15651E-05,-0.002756707,,,2.804743119,3.653524005,-2.725851328,-6.260454182,-0.307793721
2.363216172,3.576077829,5.6268E-05,-0.002923064,,,2.807230064,2.419999641,-10.42622341,-28.16054371,0.322868263
2.363216172,3.576077829,5.6268E-05,-0.002923064,,,2.807591134,0.481659157,-24.64274882,-61.30545788,2.335683886
2.363869431,1.688976556,0.000108973,-0.001425521,,,2.807798167,3.043372621,-6.144689418,-17.20179836,-0.183162332
2.363869431,1.688976556,0.000108973,-0.001425521,,,2.808004883,3.582365548,-3.09777663,-7.545705858,-0.329826535
2.37097393,0.127978945,1.42725E-05,-0.0001314,,,2.809112728,0.536216844,-24.09883256,-60.38418362,2.279638023
2.371167139,1.792651037,0.000110447,-0.001490015,,,2.82288319,3.619380577,-2.909206179,-6.876558184,-0.320986686
2.372432231,0.640956715,6.22326E-05,-0.000620825,,,2.823919517,1.209461588,-17.90223601,-48.94523076,1.536767627
2.372432231,0.640956715,6.22326E-05,-0.000620825,,,2.825785567,0.157386761,-27.98781544,-66.70572855,2.679553176
2.373338458,0.383936834,4.01731E-05,-0.000383147,,,2.832611259,3.317585072,-4.524018634,-12.30449746,-0.313303096
2.373338458,0.383936834,4.01731E-05,-0.000383147,,,2.833684508,3.473219994,-3.676247342,-9.510669394,-0.34068571
2.374578388,2.531121527,0.000112302,-0.002239283,,,2.834071512,1.413362793,-16.19739755,-45.45071558,1.313041959
2.374578388,2.531121527,0.000112302,-0.002239283,,,2.835561256,3.745894362,-2.268658908,-4.589452104,-0.262683577
2.376319215,0.898663901,8.04128E-05,-0.000843477,,,2.83913278,2.534378846,-9.544537908,-26.14114328,0.239496665
2.378464848,1.896325519,0.000111336,-0.001551724,,,2.841126612,2.2735583,-11.53546881,-30.67231592,0.471885649
2.379203398,3.756264367,4.53999E-05,-0.002963451,,,2.846050855,0.8643234,-20.92926627,-54.77529699,1.955837356
2.379203398,3.756264367,4.53999E-05,-0.002963451,,,2.84643386,3.157724641,-5.433283239,-15.15448549,-0.242281845
2.383635651,1.167010474,9.50869E-05,-0.001058246,,,2.847453672,3.882329301,-1.590540447,-2.122586551,-0.148043829
2.385762556,2,0.000111658,-0.001610628,,,2.854661946,1.777006782,-13.35240317,-39.1997801,0.928714133
2.385762556,2,0.000111658,-0.001610628,,,2.854804881,2.984094151,-6.480622135,-18.23176672,-0.129847712
2.387864479,3.477136502,6.32191E-05,-0.002890202,,,2.857984707,3.207885577,-5.135361708,-14.25719024,-0.265860421
2.387864479,3.477136502,6.32191E-05,-0.002890202,,,2.858394585,2.687654254,-8.433464532,-23.44713007,0.112683585
2.391494632,4,3.39201E-05,-0.002981899,,,2.861846769,1.514153956,-15.35869165,-43.68757468,1.224384803
2.392811382,3.073021696,9.02275E-05,-0.002687243,,,2.862611019,2.12375733,-12.73804844,-33.23685147,0.611827058
2.394381538,1.445996437,0.000105778,-0.001262629,,,2.867334828,1.178726042,-18.1143278,-49.39957658,1.614315505
2.394381538,1.445996437,0.000105778,-0.001262629,,,2.871440671,2.510237588,-9.692766821,-26.53526663,0.279788622
2.397485937,2.748062987,0.000107071,-0.00244201,,,2.872731451,1.565886369,-14.93983638,-42.78753693,1.176155099
2.401666101,2.216453313,0.000116304,-0.001888291,,,2.873151352,3.327127353,-4.458239641,-12.1241299,-0.312013831
2.401666101,2.216453313,0.000116304,-0.001888291,,,2.876035124,0.349990631,-25.90918513,-63.39193373,2.555596581
2.412512787,3.378195175,7.06577E-05,-0.002850416,,,2.877729855,3.976079685,-1.15523246,-0.430757383,-0.034475145
2.412512787,3.378195175,7.06577E-05,-0.002850416,,,2.880892036,3.869554749,-1.689048712,-2.353065162,-0.16364095
2.41754233,2.424370925,0.000116876,-0.002126487,,,2.884277712,1.973837117,-11.89896882,-35.78755459,0.749327676
2.41754233,2.424370925,0.000116876,-0.002126487,,,2.88443176,3.125130375,-5.603582912,-15.71954984,-0.215111576
2.419838933,3.837509578,4.07283E-05,-0.002973065,,,2.884920811,0.668592489,-22.72520319,-58.01705114,2.220441656
2.419838933,3.837509578,4.07283E-05,-0.002973065,,,2.885128141,1.656023304,-14.22984435,-41.22858644,1.087106136
2.431114568,2.959649792,9.87725E-05,-0.002608792,,,2.885346095,2.762876952,-7.894261384,-22.10979099,0.059488588
2.437161094,3.279253848,7.84029E-05,-0.002803712,,,2.891360405,2.88064048,-7.110427312,-20.03703708,-0.037306683
2.437161094,3.279253848,7.84029E-05,-0.002803712,,,2.891594179,3.68406905,-2.608110095,-5.704546141,-0.300484799
2.437161094,3.279253848,7.84029E-05,-0.002803712,,,2.891624047,0.026951059,-29.35458652,-68.74838818,2.886554372
2.437161094,3.279253848,7.84029E-05,-0.002803712,,,2.892374026,2.804019382,-7.612333582,-21.38317118,0.027133237
2.437161094,3.279253848,7.84029E-05,-0.002803712,,,2.897064821,3.74996181,-2.287887091,-4.514239951,-0.264769156
2.437161094,3.279253848,7.84029E-05,-0.002803712,,,2.899685394,2.14350146,-12.54369576,-32.85508062,0.624851928
2.4375,0,0,0,,,2.902619884,2.025157617,-13.5426784,-34.88474802,0.720291123
2.439864528,0.255957889,2.87386E-05,-0.000258798,,,2.906110252,3.219213314,-5.047030011,-14.03936963,-0.262123935
2.442229055,0.511915778,5.36533E-05,-0.000502775,,,2.906875049,3.655307241,-2.756091374,-6.222742481,-0.313121356
2.442229055,0.511915778,5.36533E-05,-0.000502775,,,2.90710489,2.369114448,-10.72669877,-28.95243733,0.43219279
2.442229055,0.511915778,5.36533E-05,-0.000502775,,,2.909953191,3.468789878,-3.695204334,-9.578770894,-0.337961814
2.442229055,0.511915778,5.36533E-05,-0.000502775,,,2.912264107,3.546752528,-3.297406597,-8.177810109,-0.337798448
2.442229055,0.511915778,5.36533E-05,-0.000502775,,,2.912295898,2.409643635,-10.41028283,-28.24508597,0.398276512
2.442229055,0.511915778,5.36533E-05,-0.000502775,,,2.914582978,0.126418958,-28.23989411,-67.05032297,2.827720678
2.446116039,0.769622964,7.46464E-05,-0.000733036,,,2.915692739,2.292564266,-11.31886863,-30.26729625,0.507939034
2.446510206,2.629336429,0.000114357,-0.002333095,,,2.917424868,3.960914888,-1.285371768,-0.704065017,-0.056309876
2.446510206,2.629336429,0.000114357,-0.002333095,,,2.918964151,0.322784841,-26.14653336,-63.7650421,2.637731708
2.447291382,3.66147641,5.13671E-05,-0.002942725,,,2.919728696,1.943565301,-12.07661682,-36.2607804,0.81079623
2.447291382,3.66147641,5.13671E-05,-0.002942725,,,2.921770181,0.99288755,-19.67622991,-52.46381088,1.886175397
2.450003023,1.027330149,9.13442E-05,-0.000947501,,,2.923304231,3.027129535,-6.165519186,-17.43644109,-0.138532469
2.450003023,1.027330149,9.13442E-05,-0.000947501,,,2.924797325,3.577933322,-3.14279242,-7.615263173,-0.333695869
2.451175867,2.108226656,0.000118001,-0.001751684,,,2.925414869,1.046726159,-19.19384777,-51.54401209,1.826811189
2.451175867,2.108226656,0.000118001,-0.001751684,,,2.92954867,2.653048772,-8.610667763,-23.99700846,0.180998735
2.460474467,3.918754789,3.60738E-05,-0.002977828,,,2.929891452,0.694902112,-22.42191628,-57.49001805,2.241176369
2.460474467,3.918754789,3.60738E-05,-0.002977828,,,2.930127486,1.370446702,-16.43669225,-46.03219409,1.452961287
2.460748911,1.306316112,0.000104882,-0.001161323,,,2.93081556,3.141802295,-5.477666551,-15.4041163,-0.213028043
2.467052096,2.316144269,0.000120863,-0.00200429,,,2.932109097,3.845561062,-1.856124228,-2.786160112,-0.190835026
2.469417755,2.846277888,0.000106946,-0.002521427,,,2.938515865,0.892197769,-20.56672101,-54.13943527,2.021832029
2.469417755,2.846277888,0.000106946,-0.002521427,,,2.940042129,2.48267396,-9.833210238,-26.95138738,0.347950682
2.471494798,1.585302074,0.000113471,-0.001355752,,,2.940464181,3.35584872,-4.281382067,-11.59350858,-0.312276908
2.471494798,1.585302074,0.000113471,-0.001355752,,,2.940943204,3.185724297,-5.218855829,-14.62106212,-0.236171669
2.471494798,1.585302074,0.000113471,-0.001355752,,,2.941189358,0.475431185,-24.56141984,-61.16287558,2.501409698
2.471494798,1.585302074,0.000113471,-0.001355752,,,2.942995657,0.540197154,-23.91301648,-60.07101669,2.43164245
2.471494798,1.585302074,0.000113471,-0.001355752,,,2.946631242,2.048596068,-13.30754789,-34.42737291,0.74018762
2.471494798,1.585302074,0.000113471,-0.001355752,,,2.950539194,3.984835203,-1.217039844,-0.273111223,-0.022924815
2.471494798,1.585302074,0.000113471,-0.001355752,,,2.954282134,1.829045359,-12.86329792,-38.17130237,0.961742978
2.47193969,3.562535083,5.8528E-05,-0.002915751,,,2.955611952,1.14473778,-18.30312801,-49.82669017,1.742416497
2.475464281,3.165881944,8.78429E-05,-0.002741384,,,2.960963305,2.192020049,-12.09044769,-31.9479774,0.63246695
2.475464281,3.165881944,8.78429E-05,-0.002741384,,,2.961856561,2.628907514,-8.750368405,-24.38949302,0.222232779
2.478792507,1.688976556,0.000115628,-0.001422899,,,2.962377109,3.04117366,-6.051968124,-17.16725612,-0.134983666
2.478792507,1.688976556,0.000115628,-0.001422899,,,2.968742583,3.615049194,-2.970173086,-6.942749409,-0.326196074
2.486090215,1.792651037,0.000117144,-0.001487286,,,2.970589855,2.893309233,-6.963018384,-19.76252975,-0.013862915
2.486090215,1.792651037,0.000117144,-0.001487286,,,2.972673575,3.905250093,-1.620031511,-1.708193502,-0.129503818
2.487926917,3.742721621,4.59679E-05,-0.002957591,,,2.973542798,1.339711156,-16.63843004,-46.48168128,1.531330527
2.489474148,2.522585827,0.000120004,-0.002227089,,,2.976099984,1.969728185,-11.83458689,-35.73678947,0.834623103
2.493387924,1.896325519,0.000118035,-0.001548893,,,2.982855166,3.285448779,-4.643102441,-12.83384534,-0.277078228
2.493387924,1.896325519,0.000118035,-0.001548893,,,2.984660357,2.023438452,-13.49498965,-34.80720429,0.793599246
2.496587997,3.463593756,6.6355E-05,-0.002881827,,,2.986617388,0.254284746,-26.79508387,-64.77363053,2.796577475
2.500685632,2,0.00011832,-0.001607702,,,2.98703803,3.784953866,-2.184981621,-3.879473639,-0.245698763
2.500685632,2,0.00011832,-0.001607702,,,2.992150831,0.443134923,-24.83116201,-61.6032545,2.599367329
2.500685632,2,0.00011832,-0.001607702,,,2.993629865,2.743643726,-7.926465739,-22.36218434,0.132129393
2.500685632,2,0.00011832,-0.001607702,,,2.993691035,1.672549745,-13.98357746,-40.78101651,1.169684596
2.500685632,2,0.00011832,-0.001607702,,,2.996380749,0.571429567,-23.54398736,-59.44038881,2.459505767
2.501110002,4,3.15632E-05,-0.00297772,,,3.000568486,3.925400136,-1.561956212,-1.344329645,-0.106050303
2.501110002,4,3.15632E-05,-0.00297772,,,3.001768291,1.851084501,-12.6525973,-37.72458295,0.982438122
2.501110002,4,3.15632E-05,-0.00297772,,,3.001972792,2.792484313,-7.591486694,-21.50275507,0.091348253
2.506390597,0.127978945,1.53845E-05,-0.000131045,,,3.003331273,0.761221723,-21.70676651,-56.22939643,2.246881125
2.508755125,0.383936834,4.32417E-05,-0.000382151,,,3.00476872,1.493141643,-15.36215409,-43.81762295,1.384005344
2.508755125,0.383936834,4.32417E-05,-0.000382151,,,3.007977118,3.729332282,-2.45187149,-4.881758394,-0.282352258
2.513767468,3.05251004,9.73265E-05,-0.002670006,,,3.009662732,2.907353358,-6.840190724,-19.48796238,-0.007452025
2.513767468,3.05251004,9.73265E-05,-0.002670006,,,3.009940759,2.574415191,-9.09297753,-25.28990353,0.304968385
2.515912864,0.640582027,6.71648E-05,-0.000618834,,,3.01184411,2.136492601,-12.50693607,-32.83575296,0.723920486
2.515912864,0.640582027,6.71648E-05,-0.000618834,,,3.012197817,3.257238234,-4.781806406,-13.32283126,-0.255945026
2.516561861,2.207917612,0.000123629,-0.001874501,,,3.017495563,3.427932477,-3.886713224,-10.28613484,-0.320023326
2.518442023,2.727551331,0.000115404,-0.002420164,,,3.017690035,1.554553703,-14.86417383,-42.7504432,1.326256772
2.518442023,2.727551331,0.000115404,-0.002420164,,,3.023257987,3.700570474,-2.589886643,-5.398778036,-0.29692532
2.519799848,0.898289212,8.67104E-05,-0.000840974,,,3.025641644,2.2856935,-11.27166047,-30.25735718,0.59872355
2.521236305,3.364652429,7.46486E-05,-0.002840949,,,3.031982882,2.7149854,-8.084759791,-22.82654378,0.181698747
2.521236305,3.364652429,7.46486E-05,-0.002840949,,,3.035973009,3.12538644,-5.503859806,-15.64069485,-0.167715344
2.527116284,1.166635786,0.000102442,-0.001055269,,,3.037719107,1.269191996,-17.14833754,-47.56386463,1.67926669
2.528562451,3.823966832,4.04104E-05,-0.002967583,,,3.038083484,3.04997073,-5.942410127,-16.96610384,-0.111438939
2.53243809,2.415835224,0.000124662,-0.002113518,,,3.041177193,1.694588887,-13.764207,-40.32759777,1.191193426
2.53243809,2.415835224,0.000124662,-0.002113518,,,3.043725732,3.826852939,-2.044154011,-3.121935921,-0.213953875
2.537862171,1.445621749,0.000113853,-0.001259213,,,3.043790637,3.987225448,-1.347308072,-0.229950533,-0.020077193
2.537862171,1.445621749,0.000113853,-0.001259213,,,3.043879152,2.115300278,-12.65767344,-33.15431263,0.770881035
2.551488365,3.252669737,8.44305E-05,-0.002786224,,,3.044504354,3.162385543,-5.28759626,-14.98363412,-0.189534569
2.551488365,3.252669737,8.44305E-05,-0.002786224,,,3.044508149,0.474509311,-24.45484817,-60.96871579,2.628477428
2.552070654,2.939138136,0.000106571,-0.002589649,,,3.046931768,0.538037986,-23.81612905,-59.89758434,2.55842056
2.552070654,2.939138136,0.000106571,-0.002589649,,,3.048356591,2.809156232,-7.438353108,-21.17172663,0.101647321
2.5560149,3.647933664,5.27644E-05,-0.002935582,,,3.049326966,2.360226914,-10.66028306,-28.94539834,0.545372815
2.5560149,3.647933664,5.27644E-05,-0.002935582,,,3.049991035,2.475803194,-9.777187678,-26.95226867,0.430805964
2.561405966,2.620800728,0.000122186,-0.002320971,,,3.051158684,0.126418958,-28.10549912,-66.76437214,3.016216416
2.566071627,2.099690956,0.000125,-0.001737269,,,3.051373261,3.493902303,-3.555801848,-9.100301926,-0.326340422
2.566071627,2.099690956,0.000125,-0.001737269,,,3.054517974,2.400756101,-10.34151232,-28.24111276,0.509263411
2.569197985,3.905212043,3.48062E-05,-0.002972672,,,3.056307466,1.456655173,-15.59287408,-44.34642651,1.477784864
2.569197985,3.905212043,3.48062E-05,-0.002972672,,,3.058284827,0.322784841,-25.99709461,-63.47856794,2.816495056
2.572916667,0,0,0,,,3.058715793,3.65004125,-2.83044735,-6.303835065,-0.31462789
2.575281194,0.255957889,3.09083E-05,-0.000258072,,,3.062955371,3.940078588,-1.579199147,-1.079523297,-0.088977416
2.575281194,0.255957889,3.09083E-05,-0.000258072,,,3.06390648,3.525083097,-3.406130423,-8.5407227,-0.3273543
2.580178221,0.510717499,5.75906E-05,-0.000500274,,,3.068288656,0.026951059,-29.19102963,-68.37490079,3.14029688
2.580178221,0.510717499,5.75906E-05,-0.000500274,,,3.071620644,3.847002982,-1.983632471,-2.758020499,-0.19636943
2.580663208,3.548992337,6.08961E-05,-0.002907548,,,3.07172888,0.689857791,-22.30462915,-57.29258872,2.409589696
2.581947856,2.307608568,0.000128599,-0.001990564,,,3.074015277,2.621898655,-8.690150483,-24.39894037,0.300693703
2.589064883,1.688976556,0.000122154,-0.001420003,,,3.074061322,1.580716586,-14.59632065,-42.20655983,1.352542049
2.589064883,1.688976556,0.000122154,-0.001420003,,,3.074639008,2.94651706,-6.538716929,-18.75192219,-0.008718735
2.589596672,0.769248275,8.03917E-05,-0.000730641,,,3.076284954,3.574191793,-3.177498742,-7.660359598,-0.325721873
2.589596672,0.769248275,8.03917E-05,-0.000730641,,,3.076435852,2.735011756,-7.905433298,-22.43483397,0.189712608
2.589791552,3.139297833,9.47711E-05,-0.002721487,,,3.077404603,1.880385478,-12.36138923,-37.10625847,1.024401994
2.590373841,2.825766233,0.000115299,-0.002500406,,,3.077558737,0.887252834,-20.44676157,-53.9518384,2.179695824
2.590373841,2.825766233,0.000115299,-0.002500406,,,3.078101349,3.223521911,-4.927992599,-13.88713373,-0.21596177
2.590373841,2.825766233,0.000115299,-0.002500406,,,3.079550107,1.974499568,-11.69516052,-35.50177573,0.928055929
2.590373841,2.825766233,0.000115299,-0.002500406,,,3.082497477,3.378691195,-4.114557733,-11.14086604,-0.291326369
2.590373841,2.825766233,0.000115299,-0.002500406,,,3.084466635,2.780342001,-7.594121219,-21.63927311,0.150563345
2.590373841,2.825766233,0.000115299,-0.002500406,,,3.086761211,2.01974413,-13.44504012,-34.72061004,0.892883678
2.593483656,1.026955461,9.82944E-05,-0.000944575,,,3.094043961,3.766037845,-2.342316233,-4.215813906,-0.26131541
2.593483656,1.026955461,9.82944E-05,-0.000944575,,,3.094654824,1.139792845,-18.18007365,-49.64633136,1.893653323
2.596362592,1.792651037,0.00012371,-0.001484261,,,3.095507404,2.257661908,-11.42986309,-30.6449803,0.684348377
2.596650435,3.729178875,4.64706E-05,-0.00295083,,,3.101626141,0.986491134,-19.51901314,-52.22534429,2.086418898
2.6036603,1.896325519,0.000124602,-0.001545746,,,3.102389689,0.34921406,-25.67206865,-62.94024182,2.844120134
2.603944861,4,2.87722E-05,-0.002973016,,,3.105270829,1.040329743,-19.03584489,-51.30762366,2.025211533
2.604229544,1.305941423,0.000112757,-0.001157872,,,3.107870799,1.759402,-13.20722066,-39.11074897,1.185975018
2.604229544,1.305941423,0.000112757,-0.001157872,,,3.108986763,1.48666642,-15.29271715,-43.7385385,1.496765244
2.604369908,2.514050126,0.000128033,-0.002214147,,,3.111229628,2.092613514,-12.79140624,-33.44155477,0.853713257
2.605311515,3.45005101,6.96831E-05,-0.002872527,,,3.111461659,2.638768497,-8.533296758,-24.06471728,0.309642081
2.605311515,3.45005101,6.96831E-05,-0.002872527,,,3.111840128,3.35048065,-4.24481116,-11.62824927,-0.271368938
2.610958009,2,0.000124848,-0.001604439,,,3.112184033,3.731894417,-2.49595157,-4.828470491,-0.280485401
2.610958009,2,0.000124848,-0.001604439,,,3.113819305,1.549315773,-14.79470043,-42.66642402,1.429178633
2.61927253,1.569019795,0.00012179,-0.001341169,,,3.114312148,0.661729324,-22.52464484,-57.67464968,2.49309794
2.61927253,1.569019795,0.00012179,-0.001341169,,,3.115380226,1.334666836,-16.51274173,-46.3036011,1.68229679
2.628094738,3.02592593,0.000105024,-0.002647708,,,3.117884304,3.879471391,-1.897114544,-2.171796581,-0.164472029
2.631457621,2.199381912,0.000131148,-0.001860097,,,3.120548868,2.886033201,-6.875216725,-19.76604734,0.0717907
2.631457621,2.199381912,0.000131148,-0.001860097,,,3.125821463,2.494341196,-9.561620999,-26.53905575,0.469432753
2.633337783,2.71901563,0.000123266,-0.002408053,,,3.127158287,3.78995816,-2.265883168,-3.783600069,-0.244833014
2.633337783,2.71901563,0.000123266,-0.002408053,,,3.127542446,2.236469584,-11.57086365,-30.96114497,0.733463835
2.635563576,3.338068318,8.02093E-05,-0.002824367,,,3.132961801,3.658891899,-2.811669653,-6.135308891,-0.306815908
2.637285969,3.810424086,3.99364E-05,-0.002961156,,,3.141770852,0.157386761,-27.67145058,-66.04544662,3.110204842
2.637285969,3.810424086,3.99364E-05,-0.002961156,,,3.146784883,3.029070635,-5.977789528,-17.24999791,-0.041190509
2.641807264,0.127978945,1.65344E-05,-0.000130649,,,3.15003753,1.694588887,-13.64248248,-40.13370875,1.301422551
2.641807264,0.127978945,1.65344E-05,-0.000130649,,,3.150967318,2.861760612,-7.000366876,-20.15771255,0.113665031
2.64670429,0.382738554,4.6338E-05,-0.00037987,,,3.1537978,3.450992214,-3.739147973,-9.83197181,-0.295551245
2.64733385,2.407299524,0.000132742,-0.002099818,,,3.15459868,2.349794705,-10.63572828,-28.98166842,0.643151318
2.64733385,2.407299524,0.000132742,-0.002099818,,,3.15513273,3.295605668,-4.502285474,-12.57447879,-0.228431549
2.653862029,0.639383747,7.19746E-05,-0.00061595,,,3.155688018,3.560778442,-3.238626043,-7.88204561,-0.313554347
2.663280481,0.897914524,9.3194E-05,-0.000838132,,,3.155917585,3.738035175,-2.492794169,-4.71431214,-0.275366748
2.663280481,0.897914524,9.3194E-05,-0.000838132,,,3.159756317,1.359947769,-16.25265029,-45.78557833,1.699248454
2.664738418,3.634390918,5.42128E-05,-0.002927451,,,3.160254869,3.940078588,-1.711632355,-1.079289744,-0.091150451
2.664738418,3.634390918,5.42128E-05,-0.002927451,,,3.160760977,2.397907304,-10.25502354,-28.14807185,0.598522881
2.665815636,3.226085626,9.10088E-05,-0.002767296,,,3.162123255,3.772178603,-2.360383558,-4.100875525,-0.255812488
2.665815636,3.226085626,9.10088E-05,-0.002767296,,,3.163267845,2.511211038,-9.397548089,-26.19899455,0.481523339
2.666397925,2.912554026,0.000114884,-0.002564977,,,3.167744243,0.852882663,-20.65346499,-54.33802946,2.323237587
2.666397925,2.912554026,0.000114884,-0.002564977,,,3.168676107,3.488007243,-3.563609381,-9.170451917,-0.300787117
2.670596916,1.166261098,0.000110008,-0.001051842,,,3.16965034,3.987225448,-1.546654188,-0.230027353,-0.021077882
2.670596916,1.166261098,0.000110008,-0.001051842,,,3.169802158,3.664064763,-2.799184349,-6.037087114,-0.301315755
2.672032845,3.905212043,3.24835E-05,-0.00296762,,,3.170875718,3.847002982,-2.077362278,-2.755339778,-0.19783495
2.676301725,2.612265028,0.000130373,-0.002308,,,3.175907967,2.186286964,-11.93773824,-31.74255553,0.827746505
2.676301725,2.612265028,0.000130373,-0.002308,,,3.176524394,0.477124201,-24.27433408,-60.63244082,2.789736459
2.676344003,2.099690956,0.000132059,-0.00173344,,,3.176581399,3.098351564,-5.552336539,-16.01580103,-0.082164056
2.685639902,1.429339469,0.000121896,-0.001244016,,,3.178566007,0.530639613,-23.73452551,-59.73114846,2.728191887
2.689386726,3.535449591,6.34156E-05,-0.002898319,,,3.180533116,2.727422743,-7.852013647,-22.45055072,0.268135618
2.689386726,3.535449591,6.34156E-05,-0.002898319,,,3.183528939,1.668137408,-13.8036891,-40.51760496,1.366391756
2.696843616,2.299072867,0.000136581,-0.001976133,,,3.184120116,1.880385478,-12.24771517,-36.92078595,1.133695672
2.696843616,2.299072867,0.000136581,-0.001976133,,,3.185112744,3.135350668,-5.338015029,-15.3629965,-0.106782017
2.702643223,2.809978307,0.000123322,-0.002482427,,,3.185589981,2.653546324,-8.353200882,-23.71884884,0.348836069
2.702643223,2.809978307,0.000123322,-0.002482427,,,3.185875713,0.18381598,-27.33531811,-65.5026278,3.142586169
2.704118823,3.112713723,0.00010227,-0.002700119,,,3.186802747,3.202621816,-4.969731304,-14.18561859,-0.15546232
2.705373953,3.715636129,4.69451E-05,-0.002943033,,,3.187298103,2.765608126,-7.589489646,-21.7825632,0.23386253
2.705373953,3.715636129,4.69451E-05,-0.002943033,,,3.188630752,3.417503198,-3.885411949,-10.40921856,-0.273186048
2.706634968,1.792651037,0.000130409,-0.001480799,,,3.189028216,1.167285306,-17.82949501,-48.98311341,1.962612617
2.706634968,1.792651037,0.000130409,-0.001480799,,,3.192528375,3.565951306,-3.214264979,-7.779952808,-0.305617571
2.70677972,4,2.5377E-05,-0.002967435,,,3.192627795,2.324637089,-10.79484187,-29.35465005,0.70301238
2.708333333,0,0,0,,,3.193499449,0.378255916,-25.2653588,-62.24586119,2.928742716
2.708333333,0,0,0,,,3.199677619,0.031993869,-28.99996232,-67.98386892,3.328524536
2.708333333,0,0,0,,,3.200329577,3.832025803,-2.159712821,-3.023606527,-0.210624051
2.71323036,0.25475961,3.30442E-05,-0.000256073,,,3.203076016,0.629279914,-22.73210046,-58.01926387,2.638531195
2.713932676,1.896325519,0.000131298,-0.001542134,,,3.205213948,2.417933661,-10.05423308,-27.73907377,0.615814446
2.718127386,0.50951922,6.16333E-05,-0.000497599,,,3.210327511,0.824754196,-20.86187411,-54.71520516,2.406869729
2.718127386,0.50951922,6.16333E-05,-0.000497599,,,3.212409659,3.494148001,-3.525818483,-9.045438776,-0.289063197
2.719265668,2.505514426,0.000136394,-0.002200373,,,3.213871635,2.992818628,-6.133408922,-17.81792166,0.030859107
2.719265668,2.505514426,0.000136394,-0.002200373,,,3.21732241,2.832661966,-7.121146164,-20.58781148,0.1873877
2.719638786,3.423466899,7.46322E-05,-0.002856756,,,3.217589697,1.974499568,-11.55280422,-35.26543425,1.070675753
2.721230385,2,0.000131503,-0.001600683,,,3.217945141,2.092613514,-12.69306179,-33.26408573,0.960053147
2.721230385,2,0.000131503,-0.001600683,,,3.222726264,3.329160493,-4.296002601,-11.94449997,-0.217833667
2.727545837,0.768049996,8.6002E-05,-0.000727334,,,3.224800801,2.01974413,-13.32580976,-34.48664915,1.034703376
2.736842614,1.672694276,0.000130859,-0.001405127,,,3.225640257,2.554934326,-9.011107572,-25.35984271,0.486040555
2.736964289,1.026580773,0.000105438,-0.000941238,,,3.225683264,3.925400136,-1.852337438,-1.343126814,-0.111355402
2.736964289,1.026580773,0.000105438,-0.000941238,,,3.231522342,3.674305531,-2.772098389,-5.843295684,-0.289193243
2.736964289,1.026580773,0.000105438,-0.000941238,,,3.232686948,1.487344846,-15.14286858,-43.47647506,1.627349329
2.736964289,1.026580773,0.000105438,-0.000941238,,,3.233404308,1.192566239,-17.55975913,-48.45753568,1.980783764
2.736964289,1.026580773,0.000105438,-0.000941238,,,3.233756323,3.431291711,-3.803711117,-10.14414207,-0.261371099
2.736964289,1.026580773,0.000105438,-0.000941238,,,3.235052549,0.97667138,-19.44378015,-52.09779801,2.247594778
2.740120828,3.810424086,3.82783E-05,-0.002955669,,,3.235189245,2.346786971,-10.57487849,-28.90820328,0.718697483
2.741729997,2.199381912,0.000138681,-0.001855661,,,3.236402783,2.236469584,-11.46129622,-30.78693222,0.835710024
2.742422009,2.999341819,0.000113288,-0.002623923,,,3.236757794,1.540119534,-14.72409909,-42.57526217,1.570256622
2.742422009,2.999341819,0.000113288,-0.002623923,,,3.238395524,3.730778574,-2.558533168,-4.834801093,-0.270677184
2.745607166,2.703227705,0.00013166,-0.002388659,,,3.239379194,1.040583725,-18.86976098,-51.0097037,2.173655594
2.749890846,3.311484207,8.63426E-05,-0.002806222,,,3.241613101,2.391970943,-10.21512955,-28.12604314,0.676192767
2.752007275,1.289659144,0.000120399,-0.001142137,,,3.242656924,3.470921486,-3.620992646,-9.442318803,-0.271853541
2.76222961,2.398763823,0.000141114,-0.002085311,,,3.243623068,3.759540383,-2.454793555,-4.320155154,-0.256859376
2.76222961,2.398763823,0.000141114,-0.002085311,,,3.244290085,2.968546039,-6.2502868,-18.20613167,0.073625176
2.76222961,2.398763823,0.000141114,-0.002085311,,,3.245873421,1.387776921,-15.92377667,-45.13104339,1.75935576
2.76222961,2.398763823,0.000141114,-0.002085311,,,3.248668218,1.851084501,-12.38753556,-37.29281639,1.234623925
2.76222961,2.398763823,0.000141114,-0.002085311,,,3.249091504,3.598456074,-3.075836589,-7.186629614,-0.292325941
2.76222961,2.398763823,0.000141114,-0.002085311,,,3.252034936,0.063368257,-28.59004365,-67.33563303,3.371835489
2.767050261,1.552737515,0.000130284,-0.001325877,,,3.255137123,3.910422957,-1.939810683,-1.612437716,-0.129895322
2.767050261,1.552737515,0.000130284,-0.001325877,,,3.256043112,3.809218147,-2.285110899,-3.429605384,-0.225407818
2.773461936,3.620848171,5.5759E-05,-0.002918181,,,3.258040744,0.250390128,-26.53480447,-64.21984343,3.165694409
2.773461936,3.620848171,5.5759E-05,-0.002918181,,,3.260739233,3.340775689,-4.218055827,-11.71610306,-0.205883115
2.773461936,3.620848171,5.5759E-05,-0.002918181,,,3.263397063,3.984835203,-1.706897504,-0.272870545,-0.025278433
2.773461936,3.620848171,5.5759E-05,-0.002918181,,,3.263692343,3.208883202,-4.881233864,-14.01512346,-0.118075735
2.773461936,3.620848171,5.5759E-05,-0.002918181,,,3.264968484,1.635326414,-13.95955869,-40.90558542,1.491704619
2.773461936,3.620848171,5.5759E-05,-0.002918181,,,3.272255783,2.255128246,-11.27095393,-30.40666217,0.851534661
2.773461936,3.620848171,5.5759E-05,-0.002918181,,,3.273194529,2.499271331,-9.367444317,-26.2405354,0.587837534
2.774867704,3.905212043,2.96541E-05,-0.002961618,,,3.27730348,0.755311025,-21.43011093,-55.72425618,2.571753396
2.778667308,2.8967661,0.000122873,-0.002547216,,,3.279044016,3.555291198,-3.249789547,-7.939297071,-0.278646368
2.779756429,0.126780665,1.75822E-05,-0.000128998,,,3.280335225,3.074599898,-5.599366649,-16.33040831,0.00157506
2.779756429,0.126780665,1.75822E-05,-0.000128998,,,3.282159627,1.824633021,-12.54113532,-37.67146294,1.3002371
2.780142907,3.199501516,9.819E-05,-0.002746777,,,3.285603568,0.943279799,-19.68166712,-52.54069011,2.34692524
2.780142907,3.199501516,9.819E-05,-0.002746777,,,3.289468284,2.91521554,-6.530229332,-19.07365701,0.15796802
2.784653455,0.381540275,4.9512E-05,-0.000377456,,,3.29046287,3.118521901,-5.345611307,-15.5588046,-0.029417212
2.786616379,2.099690956,0.000139295,-0.001729029,,,3.290779079,2.115300278,-12.42607091,-32.74525921,1.014507325
2.788571108,2.596477102,0.000138977,-0.002287253,,,3.292058491,1.070594972,-18.54076597,-50.37931941,2.196311535
2.791811194,0.638185468,7.69065E-05,-0.000612833,,,3.293350831,2.641841859,-8.319093309,-23.76749015,0.448842408
2.801229646,0.896716245,9.95287E-05,-0.000834355,,,3.298362031,3.967055646,-1.817872402,-0.592976121,-0.053255644
2.801229646,0.896716245,9.95287E-05,-0.000834355,,,3.298413676,3.869825343,-2.118427597,-2.340433783,-0.172368481
2.803713997,3.50886548,6.75866E-05,-0.00288325,,,3.301705312,3.220498397,-4.792603207,-13.77915125,-0.103291276
2.803713997,3.50886548,6.75866E-05,-0.00288325,,,3.302357318,0.031374388,-28.89410556,-67.73495706,3.482673175
2.807115992,2.299072867,0.000144516,-0.001971041,,,3.302809139,1.258377769,-16.92026518,-47.18592482,1.97825239
2.807115992,2.299072867,0.000144516,-0.001971041,,,3.30385652,2.477400805,-9.496546406,-26.56354851,0.639896137
2.808208812,3.715636129,4.61241E-05,-0.002937014,,,3.304523767,3.535725599,-3.325419934,-8.272912106,-0.264882814
2.808208812,3.715636129,4.61241E-05,-0.002937014,,,3.316333407,3.663855454,-2.825221111,-6.008905556,-0.270269512
2.80961458,4,2.13365E-05,-0.002960845,,,3.316445268,3.045785668,-5.730554691,-16.7877979,0.053099361
2.814912606,2.794190381,0.000131772,-0.002463309,,,3.319234212,1.969728185,-11.48092003,-35.1466573,1.188717782
2.814912606,2.794190381,0.000131772,-0.002463309,,,3.31992488,2.712282681,-7.806391126,-22.51898498,0.394806921
2.818374648,1.149978818,0.000117122,-0.001035649,,,3.32508326,2.820957501,-7.085324076,-20.64682356,0.282762239
2.818374648,1.149978818,0.000117122,-0.001035649,,,3.325848899,0.181290419,-27.20066089,-65.19379288,3.342168108
2.818446093,3.086129612,0.000110377,-0.002677138,,,3.326632078,2.13395894,-12.22925169,-32.35955263,1.034196709
2.818446093,3.086129612,0.000110377,-0.002677138,,,3.326689867,2.750468064,-7.543505613,-21.85401958,0.359231554
2.824205052,1.896325519,0.000138118,-0.001538012,,,3.327794585,2.023438452,-13.1971782,-34.22374284,1.145327565
2.824205052,1.896325519,0.000138118,-0.001538012,,,3.330714809,0.375780115,-25.12509598,-61.94626693,3.11168535
2.831502761,2,0.000138277,-0.001596386,,,3.331803539,3.982220443,-1.825119799,-0.319990334,-0.029416996
2.831502761,2,0.000138277,-0.001596386,,,3.333439635,3.350088904,-4.131700543,-11.49966638,-0.170668101
2.83153505,2.4897265,0.000145035,-0.00217835,,,3.333825396,3.418310193,-3.818898946,-10.31154306,-0.20750915
2.83153505,2.4897265,0.000145035,-0.00217835,,,3.335588441,3.132310414,-5.232035842,-15.271522,-0.009511477
2.833417633,1.41305719,0.000130077,-0.001228157,,,3.336914086,2.345431029,-10.47509601,-28.75293409,0.81817812
2.833966057,3.396882788,8.0171E-05,-0.002839284,,,3.33813536,0.973634157,-19.34287611,-51.89982834,2.369863622
2.833966057,3.396882788,8.0171E-05,-0.002839284,,,3.340263638,1.037036985,-18.77610176,-50.82665999,2.293199107
2.842955688,3.810424086,3.62248E-05,-0.002949146,,,3.340291376,0.626804113,-22.58578952,-57.72315707,2.809387484
2.842955688,3.810424086,3.62248E-05,-0.002949146,,,3.340854176,3.79876807,-2.373834606,-3.608585482,-0.221476114
2.84375,0,0,0,,,3.341217801,1.756309892,-12.97230266,-38.69635462,1.441641287
2.851179525,0.25356133,3.5227E-05,-0.000253987,,,3.341323101,3.451693601,-3.66827448,-9.72385503,-0.218634149
2.851179525,0.25356133,3.5227E-05,-0.000253987,,,3.341652764,3.899762849,-2.071682585,-1.801846771,-0.139299045
2.852002373,2.199381912,0.000146434,-0.001850548,,,3.342325426,2.383493194,-10.17049084,-28.09547719,0.781268505
2.852002373,2.199381912,0.000146434,-0.001850548,,,3.344083132,2.273808889,-11.04158317,-29.95572174,0.904177548
2.854412699,1.776368757,0.000139443,-0.001465513,,,3.348101079,3.717261099,-2.642153812,-5.055392124,-0.251987567
2.854691392,2.983553893,0.000121141,-0.00260629,,,3.350300697,0.822228635,-20.71065404,-54.41632553,2.574513382
2.856076551,0.50832094,6.57735E-05,-0.000494733,,,3.353328623,3.746022907,-2.547932357,-4.5444347,-0.242448586
2.856076551,0.50832094,6.57735E-05,-0.000494733,,,3.354016414,0.473921681,-24.08911334,-60.24670456,3.019520917
2.857876548,2.687439779,0.000140448,-0.002368141,,,3.354216769,2.956606332,-6.215311828,-18.27517856,0.167714418
2.862671595,3.65554327,5.20799E-05,-0.002920883,,,3.356058028,0.527437093,-23.54772401,-59.34642385,2.954623934
2.862671595,3.65554327,5.20799E-05,-0.002920883,,,3.358992195,1.938327372,-11.65653611,-35.59083204,1.267168124
2.864218117,3.284900096,9.31109E-05,-0.00278634,,,3.360780107,2.611688728,-8.456071072,-24.17283549,0.542476007
2.864218117,3.284900096,9.31109E-05,-0.00278634,,,3.360834597,3.063185355,-5.591137265,-16.43319408,0.070885439
2.865495003,0.766851717,9.17455E-05,-0.000723727,,,3.364414979,1.187963433,-17.43866765,-48.22291869,2.134236369
2.865495003,0.766851717,9.17455E-05,-0.000723727,,,3.365109651,3.257105052,-4.559985833,-13.08307677,-0.087686789
2.871245443,2.391951365,0.000149312,-0.002072135,,,3.366023354,3.63988718,-2.913797651,-6.415453644,-0.253243008
2.871245443,2.391951365,0.000149312,-0.002072135,,,3.368239567,0.15433936,-27.44468933,-65.5278128,3.435123444
2.874827184,1.021677802,0.000112161,-0.000933994,,,3.368609017,3.506679995,-3.425797166,-8.747058109,-0.225311149
2.874827184,1.021677802,0.000112161,-0.000933994,,,3.369466031,2.452346557,-9.611526161,-26.87324354,0.73062093
2.877702564,3.905212043,2.62927E-05,-0.002954521,,,3.369823288,3.912537401,-2.068055752,-1.572149742,-0.123467534
2.877702564,3.905212043,2.62927E-05,-0.002954521,,,3.369850125,3.105788099,-5.346702552,-15.68846648,0.039364296
2.880091658,3.580337504,6.05132E-05,-0.002900356,,,3.370356035,2.045588334,-12.9577515,-33.76097969,1.172543921
2.880091658,3.580337504,6.05132E-05,-0.002900356,,,3.374302851,1.383264801,-15.8070971,-44.90650797,1.908863005
2.884620345,1.656411996,0.000139741,-0.001389432,,,3.386120306,2.180135439,-11.77311777,-31.45717114,1.050557326
2.89093669,2.880978174,0.000131317,-0.002528186,,,3.391442098,2.589818203,-8.576637122,-24.49120177,0.596019291
2.894470177,3.172917405,0.000106019,-0.002724503,,,3.391503105,3.620321581,-2.982670991,-6.747987315,-0.240386469
2.894470177,3.172917405,0.000106019,-0.002724503,,,3.39160954,2.971263515,-6.091107129,-17.97021567,0.184317516
2.894470177,3.172917405,0.000106019,-0.002724503,,,3.393397913,1.630814294,-13.84771984,-40.68885326,1.642182566
2.894470177,3.172917405,0.000106019,-0.002724503,,,3.394552532,0.8477986,-20.41741203,-53.87102719,2.594843214
2.894470177,3.172917405,0.000106019,-0.002724503,,,3.396550773,3.807848219,-2.377545158,-3.43982135,-0.205193843
2.894470177,3.172917405,0.000106019,-0.002724503,,,3.398814114,1.481508289,-14.99405256,-43.19019907,1.820776551
2.896888755,2.099690956,0.000146701,-0.001723981,,,3.400285766,2.834680843,-6.918001943,-20.29550456,0.333164983
2.896888755,2.099690956,0.000146701,-0.001723981,,,3.402884961,1.534282977,-14.57667155,-42.29124782,1.763942698
2.897418471,3.750331227,4.13742E-05,-0.002936885,,,3.403692075,1.968599187,-11.40200896,-34.98214591,1.288816259
2.899785006,1.273376864,0.000128139,-0.001125794,,,3.405022127,1.159694789,-17.6296992,-48.59524987,2.215880454
2.899785006,1.273376864,0.000128139,-0.001125794,,,3.406495543,2.022149882,-13.13169412,-34.07603941,1.238299583
2.900840491,2.580689176,0.000147927,-0.002265413,,,3.407098012,3.20318021,-4.799346058,-13.96632284,-0.014320504
2.900840491,2.580689176,0.000147927,-0.002265413,,,3.413170299,1.820030214,-12.43265222,-37.45737176,1.456004606
2.910343718,3.468354812,7.3863E-05,-0.002861896,,,3.41964522,3.985022821,-1.957826169,-0.269386573,-0.024310086
2.912449439,4,1.661E-05,-0.002953093,,,3.419854894,0.343485979,-25.3501313,-62.24534819,3.27123629
2.912449439,4,1.661E-05,-0.002953093,,,3.422931269,2.697377093,-7.793453077,-22.60036588,0.504764999
2.912449439,4,1.661E-05,-0.002953093,,,3.424721297,3.820622771,-2.356729704,-3.20852879,-0.191455247
2.914827992,1.536455235,0.000138928,-0.00130982,,,3.428620009,3.704433883,-2.69673913,-5.258324572,-0.2246786
2.914827992,1.536455235,0.000138928,-0.00130982,,,3.430552759,3.929746756,-2.094601861,-1.26239912,-0.099390854
2.915173096,0.126780665,1.8792E-05,-0.000128516,,,3.430962051,2.742707338,-7.480737497,-21.812997,0.461860437
2.916131825,2.29226041,0.000152551,-0.001957375,,,3.431777354,0.656001243,-22.1851116,-56.98987814,2.885351484
2.922602621,0.380341996,5.27564E-05,-0.0003749,,,3.433425537,0.026429219,-28.79626897,-67.46086203,3.687220149
2.922602621,0.380341996,5.27564E-05,-0.0003749,,,3.434172441,2.128705574,-12.16151819,-32.22045647,1.15992019
2.927181989,2.778402455,0.000140653,-0.00244294,,,3.434825678,3.738577311,-2.592539571,-4.656132951,-0.217529176
2.927181989,2.778402455,0.000140653,-0.00244294,,,3.43585092,3.572079375,-3.149861575,-7.565935275,-0.206387299
2.92976036,0.636987189,8.19493E-05,-0.000609461,,,3.435959437,3.18083829,-4.890116702,-14.31373919,0.027837632
2.92976036,0.636987189,8.19493E-05,-0.000609461,,,3.436755832,3.33311193,-4.144783997,-11.6962663,-0.088000932
2.930715476,3.070341686,0.000117983,-0.00265953,,,3.437176606,2.53925409,-8.888743579,-25.2642362,0.698696466
2.930715476,3.070341686,0.000117983,-0.00265953,,,3.437678538,2.849338026,-6.78558136,-19.98233511,0.351755376
2.932165347,3.845119184,3.04068E-05,-0.002946117,,,3.449504677,2.268659028,-10.96636866,-29.82458807,1.022356649
2.939092541,0.891813274,0.000105699,-0.000827153,,,3.450824673,1.845530647,-12.21063062,-36.93795903,1.473816892
2.940550883,2.482914042,0.000153541,-0.002164797,,,3.456882061,0.123971171,-27.67057294,-65.7845292,3.601347889
2.940595778,3.35637212,8.77796E-05,-0.002814396,,,3.456894155,1.349508406,-15.98210228,-45.26300161,2.044930674
2.941775137,2,0.000145163,-0.001591497,,,3.458867273,3.681207368,-2.770906926,-5.653076469,-0.210166231
2.941775137,2,0.000145163,-0.001591497,,,3.459330422,2.671414375,-7.92922175,-22.97362018,0.569520546
2.941775137,2,0.000145163,-0.001591497,,,3.462245563,0.31653492,-25.57928885,-62.57510612,3.363232263
2.941775137,2,0.000145163,-0.001591497,,,3.462653568,3.054139952,-5.546042925,-16.44412692,0.16603007
2.941775137,2,0.000145163,-0.001591497,,,3.464615712,2.108961445,-12.30048524,-32.48299682,1.216657997
2.941775137,2,0.000145163,-0.001591497,,,3.464866035,2.983967786,-5.943418421,-17.63865626,0.237048246
2.951881254,3.690238369,4.75399E-05,-0.002921731,,,3.467467873,3.396349987,-3.841886097,-10.5752995,-0.104060993
2.951881254,3.690238369,4.75399E-05,-0.002921731,,,3.468267186,3.753742108,-2.55525927,-4.379900156,-0.200314879
2.956237543,1.145075848,0.000124428,-0.001027922,,,3.468746039,0.974075748,-19.17448068,-51.54721768,2.52282686
2.961018206,2.192569454,0.000154136,-0.001836483,,,3.470248087,3.090027736,-5.34099579,-15.81911368,0.139040968
2.966912223,3.939907142,1.94382E-05,-0.002948516,,,3.470538862,1.027485149,-18.69727269,-50.64417489,2.45750003
2.966912223,3.939907142,1.94382E-05,-0.002948516,,,3.471925214,3.48970302,-3.451960805,-8.963985042,-0.150618973
2.966960774,2.967765967,0.000129476,-0.002587242,,,3.472993259,3.858689482,-2.292089204,-2.527163135,-0.156700077
2.966960774,2.967765967,0.000129476,-0.002587242,,,3.473279892,2.338769536,-10.37365573,-28.58660892,0.968230563
2.969301316,3.615032602,5.66489E-05,-0.00290296,,,3.474887577,2.447196696,-9.529573471,-26.74780658,0.844175895
2.970145931,2.671651853,0.000149624,-0.0023464,,,3.474965578,3.429733395,-3.695267328,-9.993794576,-0.117567722
2.970145931,2.671651853,0.000149624,-0.0023464,,,3.47535138,2.760107025,-7.31668302,-21.43396205,0.485584926
2.970847838,3.244389429,0.000101833,-0.002757943,,,3.476029189,0.681571208,-21.88101968,-56.43793158,2.907134741
2.970847838,3.244389429,0.000101833,-0.002757943,,,3.478691232,2.376831701,-10.06728071,-27.93081717,0.930044652
2.971982784,1.880043239,0.000147419,-0.00152218,,,3.480666777,1.657698044,-13.54700571,-40.01735713,1.714837258
2.971982784,1.880043239,0.000147419,-0.00152218,,,3.484874948,0.875251704,-20.04940989,-53.16279832,2.668004979
2.979166667,0,0,0,,,3.485711917,0.466548593,-23.99503685,-60.00781559,3.199594984
2.980261276,2.385138908,0.000157759,-0.002058094,,,3.488135536,0.530077268,-23.35156438,-58.93949319,3.119715223
2.980261276,2.385138908,0.000157759,-0.002058094,,,3.493284519,1.125778437,-17.81140323,-48.92788132,2.361300292
2.981195365,1.39677491,0.000138367,-0.00121159,,,3.496895805,3.603003394,-3.023240967,-6.989053443,-0.173899285
2.981195365,1.39677491,0.000138367,-0.00121159,,,3.497501303,1.321239762,-16.16411483,-45.62859257,2.126710741
2.986596192,0.25356133,3.75716E-05,-0.00025299,,,3.498982461,2.584564837,-8.490737734,-24.36756337,0.709596539
2.98662813,3.785026326,3.56611E-05,-0.002934825,,,3.49977441,3.301497296,-4.246740746,-12.16300989,-0.012355486
2.986721379,3.539826836,6.62191E-05,-0.002880073,,,3.500481011,2.889709747,-6.468397905,-19.1817023,0.369074031
2.986721379,3.539826836,6.62191E-05,-0.002880073,,,3.500489538,3.152306117,-4.981818458,-14.70940757,0.110386659
2.994025716,0.507122661,7.00004E-05,-0.000491664,,,3.502050801,1.973548521,-11.26850102,-34.66402202,1.404328997
2.994025716,0.507122661,7.00004E-05,-0.000491664,,,3.502249927,2.69111422,-7.746203698,-22.55286011,0.590384151
2.994025716,0.507122661,7.00004E-05,-0.000491664,,,3.50313028,3.696369851,-2.722454805,-5.367060151,-0.185017456
2.994025716,0.507122661,7.00004E-05,-0.000491664,,,3.504412392,2.018658662,-13.06279771,-33.9027166,1.361330719
2.994025716,0.507122661,7.00004E-05,-0.000491664,,,3.506324523,3.734761163,-2.612862793,-4.698619078,-0.182496119
2.994025716,0.507122661,7.00004E-05,-0.000491664,,,3.510240103,2.734476625,-7.446579653,-21.80038969,0.549409613
3.00219043,1.760086478,0.000148651,-0.001449283,,,3.516161951,2.243213387,-11.09985754,-30.10040903,1.126401031
3.00219043,1.760086478,0.000148651,-0.001449283,,,3.51783672,3.820622771,-2.399581501,-3.192791628,-0.160694124
3.00224909,3.152194676,0.000113553,-0.002704292,,,3.517842651,1.875924414,-11.92589088,-36.25888493,1.524036968
3.00224909,3.152194676,0.000113553,-0.002704292,,,3.518321151,1.683198476,-13.31511185,-39.48953571,1.731918376
3.003206073,2.865190249,0.000140221,-0.002507758,,,3.521833573,3.929746756,-2.193678138,-1.259112495,-0.088602696
3.003206073,2.865190249,0.000140221,-0.002507758,,,3.521940156,1.4721581,-14.92355065,-43.0239085,1.976576713
3.003357898,0.761948747,9.72542E-05,-0.000716637,,,3.526772698,1.534807454,-14.42942977,-41.95800027,1.909760158
3.005904588,2.092878498,0.000153891,-0.001709618,,,3.528635835,3.279155375,-4.329484393,-12.50440409,0.031484638
3.005904588,2.092878498,0.000153891,-0.001709618,,,3.528920131,2.087521925,-12.41879332,-32.68692948,1.31733047
3.008923213,4,1.15171E-05,-0.002944611,,,3.529556125,0.249361158,-26.2071049,-63.49590077,3.543843519
3.009856323,2.573876719,0.000156658,-0.002251396,,,3.534182165,3.615775997,-2.969517633,-6.740733865,-0.149231988
3.01269008,1.016774832,0.000118993,-0.000926318,,,3.53513708,2.601159632,-8.330869229,-24.00744145,0.728424218
3.01269008,1.016774832,0.000118993,-0.000926318,,,3.536034299,0.434554724,-24.25523435,-60.39482525,3.307727383
3.016973439,3.427844144,8.11051E-05,-0.002838034,,,3.537719583,3.985022821,-2.135189957,-0.269527391,-0.022458443
3.021375006,3.879814283,2.35234E-05,-0.002941072,,,3.540667328,0.560431626,-22.98012435,-58.27869005,3.147062957
3.021375006,3.879814283,2.35234E-05,-0.002941072,,,3.543558944,3.496447206,-3.391181866,-8.77754584,-0.094298041
3.025147657,2.285447952,0.000160779,-0.00194289,,,3.54505335,2.836061977,-6.752455401,-20.00516344,0.472347466
3.032398077,1.640129717,0.000148769,-0.001372855,,,3.546605222,2.223469258,-11.22904226,-30.35830611,1.184555506
3.032398077,1.640129717,0.000148769,-0.001372855,,,3.547762689,2.465485947,-9.305868233,-26.27365766,0.901425428
3.037647902,1.268473894,0.00013595,-0.001117513,,,3.547862843,0.746744791,-21.16526056,-55.13730271,2.910991016
3.038494388,3.049618957,0.000126317,-0.0026375,,,3.549895536,3.804633565,-2.442730535,-3.464844889,-0.14984895
3.039451371,2.76261453,0.000149956,-0.002421204,,,3.564778232,1.250665469,-16.66541681,-46.62402636,2.292268698
3.039451371,2.76261453,0.000149956,-0.002421204,,,3.565960353,3.37670376,-3.863656193,-10.79069394,-0.002544917
3.039451371,2.76261453,0.000149956,-0.002421204,,,3.570022763,1.750428816,-12.76531062,-38.22079323,1.722130375
3.039451371,2.76261453,0.000149956,-0.002421204,,,3.570125292,2.970953308,-5.911644243,-17.66756334,0.355146455
3.039451371,2.76261453,0.000149956,-0.002421204,,,3.570145303,1.438600113,-15.13198964,-43.45122243,2.073805008
3.039451371,2.76261453,0.000149956,-0.002421204,,,3.571472579,1.565079269,-14.14542889,-41.32431944,1.929325739
3.041090913,3.724933467,4.20453E-05,-0.002920587,,,3.572135719,3.228312994,-4.537677491,-13.30089177,0.115759992
3.041090913,3.724933467,4.20453E-05,-0.002920587,,,3.574162836,2.330228052,-10.32375421,-28.49166051,1.091355779
3.047225499,3.315861452,9.63245E-05,-0.002786978,,,3.574442982,2.814471389,-6.856188259,-20.30865906,0.527158483
3.047225499,3.315861452,9.63245E-05,-0.002786978,,,3.574860953,3.416333535,-3.691329328,-10.10457893,-0.019242235
3.047585017,2,0.000151861,-0.001586203,,,3.580586691,2.375412024,-9.958610812,-27.71402731,1.045082627
3.047585017,2,0.000151861,-0.001586203,,,3.580845304,3.509219809,-3.324878519,-8.51778207,-0.065424078
3.049566716,2.476101584,0.000162326,-0.002150255,,,3.581013074,3.912537401,-2.267951626,-1.560689853,-0.090225571
3.050589762,0.126780665,2.00326E-05,-0.000127984,,,3.583917308,2.482080741,-9.138691615,-25.90638599,0.921918288
3.058019287,0.380341996,5.61549E-05,-0.000373348,,,3.588309184,0.464927118,-23.87562265,-59.73056477,3.335983374
3.058019287,0.380341996,5.61549E-05,-0.000373348,,,3.590518594,0.527275346,-23.2440679,-58.68266807,3.255217433
3.058510975,3.649727701,5.18883E-05,-0.002903566,,,3.592304503,2.176045514,-11.57692323,-31.03777238,1.294208586
3.062605723,1.520172956,0.000147689,-0.001292947,,,3.593457767,0.123971171,-27.49297224,-65.37895274,3.802429413
3.062605723,1.520172956,0.000147689,-0.001292947,,,3.598809449,3.03730535,-5.506637576,-16.48629748,0.318896543
3.062605723,1.520172956,0.000147689,-0.001292947,,,3.600222037,3.350181446,-3.954443731,-11.18944161,0.051143896
3.062605723,1.520172956,0.000147689,-0.001292947,,,3.601566238,0.31653492,-25.39518106,-62.16174788,3.553980724
3.062605723,1.520172956,0.000147689,-0.001292947,,,3.602575113,2.686727232,-7.660871918,-22.40495164,0.702318885
3.062605723,1.520172956,0.000147689,-0.001292947,,,3.605748795,3.139291638,-4.954276331,-14.74784867,0.229340257
3.063385996,3.939907142,1.48208E-05,-0.002939466,,,3.606403967,3.073193134,-5.302913748,-15.86419591,0.292143801
3.067623255,0.632084219,8.66828E-05,-0.000602554,,,3.606766573,2.617095062,-8.13512859,-23.57092078,0.787913107
3.067623255,0.632084219,8.66828E-05,-0.000602554,,,3.609245175,3.694910062,-2.713744034,-5.326528026,-0.10375103
3.070034039,2.185756996,0.000161967,-0.001821656,,,3.609305893,2.72325494,-7.408415015,-21.77184318,0.667823301
3.070034039,2.185756996,0.000161967,-0.001821656,,,3.610090147,0.026429219,-28.5700625,-66.93584313,3.958572203
3.074739687,2.947043239,0.000138437,-0.002563459,,,3.610302343,2.3067896,-10.46907967,-28.79314681,1.161343882
3.075837789,3.819721425,2.88791E-05,-0.002930688,,,3.610749528,3.631991644,-2.895983983,-6.396554218,-0.085657644
3.075837789,3.819721425,2.88791E-05,-0.002930688,,,3.611935947,3.727250212,-2.628114045,-4.770410355,-0.106498088
3.075931038,3.574521934,6.22519E-05,-0.002882403,,,3.61307189,3.896548195,-2.308167387,-1.841283508,-0.08961865
3.076955437,0.886910304,0.000111953,-0.000819572,,,3.614476556,0.676758644,-21.74544597,-56.10804764,3.086015545
3.077792664,1.880043239,0.0001542,-0.001516953,,,3.618974577,1.533421836,-14.33451264,-41.71689385,2.023621135
3.078626751,3.2236667,0.000109087,-0.002737654,,,3.61912396,3.431496018,-3.602442536,-9.78438472,0.017911537
3.079161764,2.664839395,0.000158481,-0.002331822,,,3.620239607,1.875924414,-11.82016017,-35.97922042,1.653953213
3.079161764,2.664839395,0.000158481,-0.002331822,,,3.620594551,0.87053396,-19.91745243,-52.84042584,2.838628142
3.089277108,2.37832645,0.000166436,-0.002043115,,,3.622479843,1.469592034,-14.82670101,-42.77695828,2.101307985
3.089277108,2.37832645,0.000166436,-0.002043115,,,3.622776135,1.683198476,-13.20020689,-39.19571673,1.861088085
3.0933511,3.499316168,7.2969E-05,-0.002857123,,,3.623371098,3.783689136,-2.494693872,-3.795518379,-0.100919839
3.0933511,3.499316168,7.2969E-05,-0.002857123,,,3.623506197,2.395111869,-9.753613865,-27.27187524,1.070997612
3.094100438,1.140172878,0.000131841,-0.00101968,,,3.625308867,3.982220443,-2.246240931,-0.318479376,-0.019522803
3.105396986,4,5.75405E-06,-0.002934794,,,3.629004122,1.121060693,-17.68278468,-48.608261,2.529307927
3.10800031,1.760086478,0.000155459,-0.001444157,,,3.631317087,2.087521925,-12.30328727,-32.41468048,1.445375858
3.110028002,3.131471947,0.000121648,-0.002682343,,,3.634504214,1.973548521,-11.1369562,-34.30850004,1.574838361
3.110028002,3.131471947,0.000121648,-0.002682343,,,3.635140233,2.941152863,-6.01785365,-18.03266028,0.457053339
3.110984985,2.84446752,0.000149628,-0.002482301,,,3.635948669,1.316427198,-16.0369158,-45.3064201,2.29838718
3.110984985,2.84446752,0.000149628,-0.002482301,,,3.636010648,3.265879326,-4.306920221,-12.55261034,0.15419992
3.111714468,2.092878498,0.00016125,-0.001703437,,,3.636865804,2.018658662,-12.91834153,-33.54943363,1.531250372
3.114583333,0,0,0,,,3.638338549,2.788435077,-6.950752176,-20.60207107,0.626503396
3.117848779,3.879814283,1.95089E-05,-0.002931377,,,3.644166309,3.366220016,-3.854795876,-10.84597625,0.088431085
3.118872156,2.567064261,0.000165688,-0.002236254,,,3.644303254,0.96797321,-19.00514373,-51.13110205,2.741621057
3.118872156,2.567064261,0.000165688,-0.002236254,,,3.644477544,2.525037668,-8.749137965,-25.02825241,0.93952661
3.11905826,1.39187194,0.000146602,-0.001202672,,,3.645601661,0.342120078,-25.06570804,-61.59806856,3.579347757
3.11905826,1.39187194,0.000146602,-0.001202672,,,3.646096078,1.021382611,-18.52891117,-50.22886978,2.675564836
3.122012858,0.25356133,3.99692E-05,-0.000251889,,,3.646823822,3.549615289,-3.149021316,-7.749711311,-0.01474495
3.122012858,0.25356133,3.99692E-05,-0.000251889,,,3.651060205,2.223469258,-11.1061056,-30.08216541,1.309890864
3.12360316,3.387333476,8.93679E-05,-0.002811476,,,3.651400928,2.327958755,-10.24955472,-28.32662215,1.184644303
3.12360316,3.387333476,8.93679E-05,-0.002811476,,,3.654167632,3.407904814,-3.675541944,-10.1266615,0.072068624
3.130076609,0.50466787,7.40844E-05,-0.000487267,,,3.656470365,0.64882839,-21.95899483,-56.44363843,3.176124608
3.130076609,0.50466787,7.40844E-05,-0.000487267,,,3.658180926,2.371097052,-9.899395201,-27.58279678,1.140607491
3.130300572,3.759628566,3.54928E-05,-0.002917295,,,3.662790963,1.656530824,-13.35390112,-39.52226945,1.940596584
3.130300572,3.759628566,3.54928E-05,-0.002917295,,,3.663366204,3.963239498,-2.293300489,-0.658603346,-0.033119616
3.130300572,3.759628566,3.54928E-05,-0.002917295,,,3.664529865,2.919562275,-6.114131949,-18.32830505,0.51332908
3.130300572,3.759628566,3.54928E-05,-0.002917295,,,3.672211412,3.854746409,-2.367941442,-2.552495749,-0.063539782
3.130300572,3.759628566,3.54928E-05,-0.002917295,,,3.673028511,3.279389929,-4.215283261,-12.2538376,0.186497739
3.13416349,2.278635494,0.00016918,-0.001927525,,,3.67949013,3.150727638,-4.82876755,-14.40323546,0.303005126
3.13416349,2.278635494,0.00016918,-0.001927525,,,3.680034344,1.342534235,-15.77184879,-44.73085283,2.320935307
3.138207957,1.640129717,0.000155547,-0.001367866,,,3.684224852,0.15433936,-27.03203318,-64.58918946,3.894173454
3.138207957,1.640129717,0.000155547,-0.001367866,,,3.685680913,2.241301773,-10.91540211,-29.68460373,1.33100514
3.141220793,0.757045776,0.00010282,-0.000709225,,,3.687733069,1.845530647,-11.96352478,-36.28702377,1.772759176
3.141220793,0.757045776,0.00010282,-0.000709225,,,3.689824247,2.47374073,-9.074167526,-25.76891574,1.053977946
3.146273301,3.028896229,0.000135182,-0.00261375,,,3.692707648,3.504321876,-3.285048953,-8.441865339,0.061800175
3.146297717,2.751009394,0.000158968,-0.002402067,,,3.697013729,3.981019055,-2.304344292,-0.337534805,-0.010829491
3.146297717,2.751009394,0.000158968,-0.002402067,,,3.699286362,3.02133846,-5.495361572,-16.53225528,0.449537693
3.147720634,3.6844228,4.61368E-05,-0.002902016,,,3.701524108,2.108961445,-12.03080324,-31.85300872,1.510401679
3.147720634,3.6844228,4.61368E-05,-0.002902016,,,3.70798283,2.869678638,-6.367014781,-19.05932941,0.617634628
3.150552975,1.011871862,0.00012591,-0.000918181,,,3.70830189,3.063941204,-5.254300005,-15.79482151,0.418674412
3.150552975,1.011871862,0.00012591,-0.000918181,,,3.708557114,0.836883499,-20.11175791,-53.12410467,2.990491127
3.153394897,2,0.000158635,-0.001580271,,,3.710586877,2.60891937,-8.070174483,-23.43740443,0.916920071
3.153394897,2,0.000158635,-0.001580271,,,3.716507994,3.164238241,-4.727938975,-14.0927918,0.335770488
3.155004412,3.295138724,0.000103195,-0.002766477,,,3.719026708,1.148779688,-17.33356472,-47.85625393,2.603934229
3.158582549,2.469289126,0.000171367,-0.00213464,,,3.719033614,2.45351108,-9.190903564,-26.02572316,1.113232837
3.158582549,2.469289126,0.000171367,-0.00213464,,,3.7194003,0.465945196,-23.68616533,-59.29545481,3.506909493
3.159859769,3.939907142,9.63212E-06,-0.002928984,,,3.720407901,3.627190213,-2.870784516,-6.343312339,0.042409235
3.165140697,3.609217033,5.73638E-05,-0.002882568,,,3.721261467,0.51846622,-23.15431185,-58.41252708,3.436585486
3.165140697,3.609217033,5.73638E-05,-0.002882568,,,3.722227806,3.484449071,-3.34084526,-8.722785268,0.109809807
3.172311562,3.819721425,2.55823E-05,-0.002920261,,,3.724934234,3.891650262,-2.326365696,-1.898071728,-0.019884877
3.172311562,3.819721425,2.55823E-05,-0.002920261,,,3.727747897,1.818862995,-12.11014394,-36.60743731,1.852504114
3.175510797,1.263570924,0.000143863,-0.001108622,,,3.728260275,0.179924518,-26.68870896,-64.02093571,3.922074299
3.175510797,1.263570924,0.000143863,-0.001108622,,,3.732940368,1.968599187,-11.07501833,-34.09593311,1.711418205
3.175843919,2.185756996,0.00016991,-0.001814515,,,3.733029471,3.778887705,-2.489795072,-3.796675484,0.016646849
3.182518599,2.92632051,0.000147883,-0.002537993,,,3.734175085,2.99570806,-5.603069686,-16.87500524,0.517508712
3.182518599,2.92632051,0.000147883,-0.002537993,,,3.735743835,2.022149882,-12.77165821,-33.19609916,1.659190392
3.182560759,3.534011267,6.89871E-05,-0.002858981,,,3.736112469,0.369373103,-24.6550342,-60.84924165,3.664331358
3.182560759,3.534011267,6.89871E-05,-0.002858981,,,3.736144816,2.12679396,-11.83229003,-31.44992309,1.533795112
3.183602544,1.880043239,0.000161054,-0.00151112,,,3.736869667,2.676151738,-7.576813904,-22.2331441,0.869460361
3.186006429,0.126780665,2.13005E-05,-0.0001274,,,3.741504336,0.031374388,-28.33077441,-66.42871474,4.154583992
3.186006429,0.126780665,2.13005E-05,-0.0001274,,,3.742158854,2.780259385,-6.886680244,-20.46947432,0.757028724
3.18600811,2.65323426,0.000167711,-0.002311786,,,3.743600447,2.712679447,-7.324666542,-21.60041089,0.8353998
3.186405663,3.202943971,0.000116929,-0.002715449,,,3.74480996,3.358053577,-3.819134496,-10.78711088,0.21800764
3.189945247,1.515699128,0.000155609,-0.001284104,,,3.74484262,0.615732739,-22.16080776,-56.70783781,3.332978167
3.189945247,1.515699128,0.000155609,-0.001284104,,,3.745774895,3.291686993,-4.103624453,-11.89268509,0.267559527
3.19407018,0.377887205,5.92954E-05,-0.000369327,,,3.748780619,2.327606235,-10.13369206,-28.05020121,1.303390962
3.198292941,2.371513992,0.000175318,-0.002027124,,,3.750550923,0.808953245,-20.3146425,-53.45253241,3.079255769
3.198292941,2.371513992,0.000175318,-0.002027124,,,3.751091439,3.688699273,-2.690421023,-5.27341368,0.063904397
3.198292941,2.371513992,0.000175318,-0.002027124,,,3.751996726,1.527466737,-14.2297532,-41.39882009,2.196261657
3.198292941,2.371513992,0.000175318,-0.002027124,,,3.752246162,3.079979775,-5.126915393,-15.41630361,0.457704857
3.198292941,2.371513992,0.000175318,-0.002027124,,,3.753234895,3.3931681,-3.670288013,-10.18328031,0.205521371
3.198292941,2.371513992,0.000175318,-0.002027124,,,3.753278303,3.906627441,-2.330371277,-1.644588688,0.003229929
3.199980821,3.4588055,8.08307E-05,-0.002831291,,,3.753782211,3.721039423,-2.611529346,-4.734917185,0.055857059
3.199980821,3.4588055,8.08307E-05,-0.002831291,,,3.754491968,2.363945159,-9.83817991,-27.42342823,1.265726194
3.199980821,3.4588055,8.08307E-05,-0.002831291,,,3.754699375,2.259692246,-10.67857674,-29.16984958,1.394452134
3.199980821,3.4588055,8.08307E-05,-0.002831291,,,3.754949499,1.473697661,-14.64232393,-42.28933216,2.260782822
3.199980821,3.4588055,8.08307E-05,-0.002831291,,,3.757719761,1.625339234,-13.48257654,-39.74263211,2.095432685
3.199980821,3.4588055,8.08307E-05,-0.002831291,,,3.763112383,1.174886724,-17.05780219,-47.27133166,2.625458535
3.201870759,4,-7.06E-07,-0.002923453,,,3.770436804,2.911222264,-6.051628619,-18.19336831,0.649308078
3.203674147,0.629629428,9.16598E-05,-0.000597574,,,3.771570292,1.37312538,-15.41749683,-43.91849705,2.397675892
3.213810191,1.760086478,0.000162336,-0.00143846,,,3.774529654,0.958464671,-18.92233948,-50.86362042,2.912662044
3.213810191,1.760086478,0.000162336,-0.00143846,,,3.775338573,2.582244127,-8.181288346,-23.69697875,1.026285796
3.214322552,3.879814283,1.50312E-05,-0.002920138,,,3.776657933,1.0218675,-18.3583362,-49.79260683,2.833857321
3.214322552,3.879814283,1.50312E-05,-0.002920138,,,3.77684242,2.043319037,-12.52851314,-32.71292036,1.689364859
3.214391894,3.749267173,3.49709E-05,-0.002906004,,,3.777586689,3.013910196,-5.458699583,-16.45432025,0.553643646
3.214391894,3.749267173,3.49709E-05,-0.002906004,,,3.778593447,3.984010794,-2.353687963,-0.292511893,-0.013854502
3.214818332,0.882007334,0.000118268,-0.00081159,,,3.779387972,3.202665637,-4.486413812,-13.29665931,0.383105263
3.214818332,0.882007334,0.000118268,-0.00081159,,,3.780442366,1.936941754,-11.24271047,-34.47014357,1.806331782
3.217524348,2.092878498,0.000168724,-0.001696509,,,3.781489517,2.430146732,-9.292054073,-26.22984738,1.217648292
3.217806915,3.110749219,0.000130307,-0.002658495,,,3.785293617,3.456398198,-3.408079729,-9.061920242,0.211201928
3.217806915,3.110749219,0.000130307,-0.002658495,,,3.786642238,3.055579168,-5.223916239,-15.7328091,0.524786081
3.217831331,2.832862384,0.00015866,-0.002462616,,,3.787890773,3.604667275,-2.91339393,-6.60181731,0.145197538
3.225718502,2.555459125,0.000174966,-0.002215417,,,3.79371196,2.171168656,-11.37615544,-30.52638695,1.553995795
3.231382073,3.366610748,9.57414E-05,-0.00279061,,,3.793779222,0.061746782,-27.90930902,-65.75055249,4.190448768
3.231382073,3.366610748,9.57414E-05,-0.00279061,,,3.80001411,0.243983116,-25.88988763,-62.71537282,3.932203842
3.231811956,3.674061406,4.67089E-05,-0.002889974,,,3.803604144,3.793524843,-2.442457577,-3.474034319,0.113273933
3.231963334,1.135269908,0.000139336,-0.001010887,,,3.804547941,2.562014477,-8.290318002,-23.94611602,1.086214179
3.231963334,1.135269908,0.000139336,-0.001010887,,,3.805164544,3.924999654,-2.269102298,-1.30453813,0.058904502
3.23997337,2.278635494,0.000177616,-0.001919338,,,3.807005958,2.926555415,-5.923652134,-17.83142874,0.679470247
3.23997337,2.278635494,0.000177616,-0.001919338,,,3.807936605,1.750834832,-12.51147553,-37.47843938,2.027935014
3.246397783,1.387398112,0.000154295,-0.001193842,,,3.811188295,2.021169155,-12.6892338,-32.96824178,1.763475866
3.249232019,3.59885564,5.8974E-05,-0.002869767,,,3.814644475,2.795555884,-6.709022177,-20.00066442,0.829347999
3.25,0,0,0,,,3.817410931,3.584794469,-2.961490156,-6.870155888,0.197402062
3.25,0,0,0,,,3.817574327,0.739521908,-20.87421523,-54.38509448,3.255641905
3.25,0,0,0,,,3.817591709,1.968342567,-10.99685644,-33.82430465,1.827716105
3.253144064,2.739404259,0.000168312,-0.002381523,,,3.822578092,3.152091336,-4.694905337,-14.02300976,0.48417084
3.253144064,2.739404259,0.000168312,-0.002381523,,,3.824380921,0.925308391,-19.15452886,-51.24639479,3.016823234
3.254052213,3.0081735,0.000144566,-0.00258814,,,3.828992473,1.052859421,-18.02096099,-49.09041221,2.858475492
3.254052213,3.0081735,0.000144566,-0.00258814,,,3.831948213,3.808502021,-2.411618565,-3.17348717,0.158079711
3.256333542,3.939907142,3.86402E-06,-0.002916864,,,3.835796182,1.243520604,-16.3957218,-45.86853566,2.631101066
3.256333542,3.939907142,3.86402E-06,-0.002916864,,,3.836074869,2.66482601,-7.538336298,-22.12275621,1.004171749
3.256402884,3.809360031,2.40898E-05,-0.002908708,,,3.839041202,2.122795639,-11.73996647,-31.18253694,1.674232912
3.25806375,0.25110654,4.20426E-05,-0.000248312,,,3.843941553,0.030372395,-28.19096292,-66.09190496,4.314140054
3.259204778,2,0.000165468,-0.001573656,,,3.844065045,2.708188415,-7.239423277,-21.37086641,0.964377051
3.259204778,2,0.000165468,-0.001573656,,,3.84759885,2.514028433,-8.585192881,-24.61111344,1.197343179
3.262783324,3.274415995,0.000110681,-0.002743859,,,3.849755145,3.279779413,-4.077760024,-11.82603138,0.419140155
3.262783324,3.274415995,0.000110681,-0.002743859,,,3.851213628,2.810889036,-6.572989582,-19.62954559,0.858874932
3.265428895,2.457683991,0.000180517,-0.002113106,,,3.851552727,3.131536703,-4.771624207,-14.28081688,0.541610336
3.265428895,2.457683991,0.000180517,-0.002113106,,,3.855568442,2.255772702,-10.58500982,-28.90653221,1.527763983
3.26554748,1.635655889,0.000163694,-0.001358308,,,3.855727011,3.680931277,-2.683066452,-5.212854641,0.229569972
3.266127501,0.50221308,7.82072E-05,-0.000482658,,,3.858877695,3.533973122,-3.103837535,-7.609291958,0.282800557
3.266127501,0.50221308,7.82072E-05,-0.000482658,,,3.858921254,3.719322589,-2.584157327,-4.577777469,0.226722519
3.266652081,3.523649873,7.15682E-05,-0.002845424,,,3.865982603,3.849140949,-2.294053104,-2.472857293,0.206418414
3.266652081,3.523649873,7.15682E-05,-0.002845424,,,3.867244884,0.175839496,-26.52975205,-63.60728203,4.129062041
3.277271686,0.754590986,0.000108602,-0.000703598,,,3.867973548,2.104136978,-11.86806335,-31.39347395,1.736652088
3.2816538,2.185756996,0.000177998,-0.001806508,,,3.868179788,1.817816782,-11.97669982,-36.15230985,2.040952655
3.2816538,2.185756996,0.000177998,-0.001806508,,,3.870749598,2.640811193,-7.661259777,-22.41075081,1.075658422
3.288415871,1.006968892,0.000132886,-0.000909557,,,3.872358729,0.365368566,-24.50070305,-60.44157056,3.854228521
3.288415871,1.006968892,0.000132886,-0.000909557,,,3.876539273,0.953453652,-18.83486503,-50.58710284,3.044161194
3.288415871,1.006968892,0.000132886,-0.000909557,,,3.878083648,3.009103658,-5.38717432,-16.23581695,0.690331955
3.288415871,1.006968892,0.000132886,-0.000909557,,,3.879022547,1.017601853,-18.26506853,-49.50196782,2.964586583
3.288415871,1.006968892,0.000132886,-0.000909557,,,3.879257663,2.322536193,-10.01179503,-27.70854237,1.473941634
3.288415871,1.006968892,0.000132886,-0.000909557,,,3.879311408,3.342650779,-3.791294104,-10.70219521,0.418605472
3.289364945,2.914715374,0.000156832,-0.002517619,,,3.879517249,2.94160164,-5.762872751,-17.35578713,0.758599977
3.289412424,1.880043239,0.000167964,-0.001504641,,,3.881088881,0.611728202,-22.01085468,-56.29703072,3.511744956
3.289412424,1.880043239,0.000167964,-0.001504641,,,3.882358585,2.426227188,-9.197788924,-25.96307637,1.348415045
3.292854456,2.641629124,0.000177221,-0.002290405,,,3.884969011,2.358875117,-9.716132316,-27.08086515,1.435577571
3.294184576,3.182221243,0.000125362,-0.002691148,,,3.885711879,3.044204849,-5.190896779,-15.62723763,0.667463426
3.294184576,3.182221243,0.000125362,-0.002691148,,,3.887476649,2.726390551,-7.070828149,-20.92266983,0.998888018
3.298344532,4,-7.88E-06,-0.002910375,,,3.887736342,3.377765302,-3.645847125,-10.0991686,0.409199592
3.298344532,4,-7.88E-06,-0.002910375,,,3.889273866,3.444490617,-3.394479258,-8.997449377,0.37356039
3.298344532,4,-7.88E-06,-0.002910375,,,3.889364049,3.984010794,-2.195809775,-0.269323276,0.054456655
3.298413874,3.86945289,1.24562E-05,-0.002908271,,,3.889535532,0.804868223,-20.16658526,-53.03124233,3.256636189
3.298483216,3.73890578,3.45884E-05,-0.002893317,,,3.890770683,3.657340073,-2.734925946,-5.514198877,0.295460674
3.298483216,3.73890578,3.45884E-05,-0.002893317,,,3.890798974,3.924999654,-2.204324749,-1.217807117,0.18954403
3.302420233,3.441972599,8.58049E-05,-0.002812096,,,3.89256878,3.737102146,-2.539496475,-4.218020914,0.277806836
3.302420233,3.441972599,8.58049E-05,-0.002812096,,,3.895384789,1.624313634,-13.34261962,-39.28050875,2.274503356
3.302819835,2.366407835,0.000184007,-0.002012337,,,3.895638763,0.460765212,-23.48835695,-58.76651071,3.745994886
3.302819835,2.366407835,0.000184007,-0.002012337,,,3.89749993,0.513286236,-22.95776559,-57.88274168,3.67256871
3.30285032,1.259097096,0.00015124,-0.001099874,,,3.899473725,1.844268261,-11.76227245,-35.59923322,2.057672716
3.315903278,3.663700013,4.74814E-05,-0.002876505,,,3.903544274,1.17384051,-16.89416921,-46.79103816,2.799222855
3.31728477,1.511225299,0.000163599,-0.001274562,,,3.905101748,2.017832515,-12.60143169,-32.69584452,1.898387283
3.31728477,1.511225299,0.000163599,-0.001274562,,,3.907444327,2.558016156,-8.195858212,-23.66987505,1.219784286
3.322057321,0.124325875,2.2175E-05,-0.000124336,,,3.909235319,1.372099779,-15.26581349,-43.4472706,2.570791339
3.322057321,0.124325875,2.2175E-05,-0.000124336,,,3.909500729,0.149410276,-26.7557303,-63.89123039,4.230572675
3.323334229,2.092878498,0.000176295,-0.001688783,,,3.910495868,1.973332348,-10.8787329,-33.4144771,1.952788192
3.323334229,2.092878498,0.000176295,-0.001688783,,,3.912204131,2.660071226,-7.482473242,-21.94615463,1.106059222
3.324677678,2.821257249,0.000168034,-0.002441353,,,3.913600058,3.251840225,-4.153886811,-12.09653681,0.533150612
3.325585827,3.09002649,0.000139516,-0.00263259,,,3.913693273,2.852182386,-6.253015672,-18.73237278,0.895917195
3.325585827,3.09002649,0.000139516,-0.00263259,,,3.915298888,3.106250309,-4.842863456,-14.50047246,0.652798589
3.325585827,3.09002649,0.000139516,-0.00263259,,,3.919054343,2.23223341,-10.69978984,-29.0753325,1.640208584
3.325585827,3.09002649,0.000139516,-0.00263259,,,3.919303769,3.808502021,-2.397472976,-3.012225017,0.328820156
3.325585827,3.09002649,0.000139516,-0.00263259,,,3.920941006,2.702288179,-7.191068793,-21.20969782,1.069096589
3.325585827,3.09002649,0.000139516,-0.00263259,,,3.92348103,3.572647564,-2.960225953,-6.805451806,0.375401333
3.330121072,0.375432415,6.24518E-05,-0.000365153,,,3.929424514,2.083646732,-11.97141508,-31.51322748,1.846594006
3.332564849,2.54385399,0.000184465,-0.002193309,,,3.930070404,1.526140093,-14.04301002,-40.79190878,2.424630741
3.332564849,2.54385399,0.000184465,-0.002193309,,,3.931482824,3.669791945,-2.695485109,-5.207563132,0.365721466
3.33332334,3.588494247,6.08277E-05,-0.002855517,,,3.932734427,3.727732809,-2.546748267,-4.274388959,0.362401824
3.33332334,3.588494247,6.08277E-05,-0.002855517,,,3.933023177,1.472371018,-14.45227487,-41.67986537,2.487480789
3.333821485,3.349777846,0.000101932,-0.002769883,,,3.933472789,0.828577283,-19.88891599,-52.47014528,3.278989123
3.339725039,0.627174638,9.66788E-05,-0.000592309,,,3.942364879,2.574240462,-8.039270428,-23.27305418,1.245002414
3.340424864,3.929545748,8.03646E-08,-0.002904627,,,3.942574693,3.231285593,-4.224322782,-12.34119242,0.591701426
3.340424864,3.929545748,8.03646E-08,-0.002904627,,,3.945688707,1.14414017,-17.0926015,-47.13061635,2.887487271
3.340494206,3.798998638,2.27012E-05,-0.002895678,,,3.94798669,2.213574748,-10.81891593,-29.27987304,1.702313804
3.341149714,1.75561265,0.000170631,-0.0014281,,,3.948825352,3.701793369,-2.612634663,-4.642401015,0.394694473
3.344500264,2.273529337,0.000185978,-0.001904418,,,3.951404461,3.906627441,-2.137869325,-1.410587497,0.371887352
3.350869224,0.879552544,0.000124763,-0.000805243,,,3.952407044,2.444442717,-8.973198342,-25.40646414,1.415053359
3.350869224,0.879552544,0.000124763,-0.000805243,,,3.953138587,3.80060946,-2.417447769,-3.065504597,0.403890978
3.359302857,1.13079608,0.000146307,-0.00100229,,,3.954726639,1.874910418,-11.49945316,-34.88385646,2.104432829
3.359302857,1.13079608,0.000146307,-0.00100229,,,3.95715423,2.80222083,-6.512431478,-19.4112903,1.006396517
3.35999041,2.727799123,0.000177953,-0.002359468,,,3.957776204,3.583136797,-2.920141248,-6.534057887,0.432924615
3.35999041,2.727799123,0.000177953,-0.002359468,,,3.960824733,0.332855071,-24.70784934,-60.65539495,4.022357055
3.360898559,2.996568365,0.000153318,-0.002566921,,,3.962799352,3.456899367,-3.314640754,-8.571223152,0.487522877
3.360898559,2.996568365,0.000153318,-0.002566921,,,3.971693437,0.639563383,-21.6136409,-55.49199107,3.587008791
3.365014658,2,0.000172341,-0.001566315,,,3.972363613,3.981019055,-1.722635944,-0.282831392,0.253749187
3.365014658,2,0.000172341,-0.001566315,,,3.975022765,0.025585158,-28.04074932,-65.69080127,4.523425833
3.365014658,2,0.000172341,-0.001566315,,,3.97573643,2.315355812,-9.946893806,-27.47592838,1.607381785
3.365014658,2,0.000172341,-0.001566315,,,3.97850554,3.327932252,-3.788193237,-10.62821794,0.581986744
3.365014658,2,0.000172341,-0.001566315,,,3.981296532,1.654157967,-13.0335624,-38.45773184,2.355997856
3.365014658,2,0.000172341,-0.001566315,,,3.982516428,2.358494108,-9.596221152,-26.72927283,1.561249014
3.365222736,3.257583094,0.000117925,-0.002721667,,,3.983370553,2.933104219,-5.708348717,-17.13518155,0.907817538
3.369091493,3.506816972,7.5841E-05,-0.002825536,,,3.985239279,3.89873488,-2.142383837,-1.443304897,0.456386948
3.369955789,2.452577834,0.000189557,-0.002097373,,,3.985344001,2.781917426,-6.608574858,-19.64496825,1.065474063
3.373737307,1.382924284,0.000162039,-0.00118437,,,3.985666061,3.183364084,-4.411255518,-12.98114938,0.692400842
3.382505196,3.859091497,9.93884E-06,-0.002894846,,,3.987327596,2.460667022,-8.808630935,-25.00311219,1.439800872
3.382505196,3.859091497,9.93884E-06,-0.002894846,,,3.988506863,3.36961705,-3.618693022,-9.910106661,0.574088399
3.382574538,3.728544386,3.43946E-05,-0.002879061,,,3.991280996,2.168250778,-11.1478163,-29.87026483,1.81915575
3.382574538,3.728544386,3.43946E-05,-0.002879061,,,3.997094526,3.4673886,-3.264083503,-8.284716493,0.541541081
3.385416667,0,0,0,,,3.99822301,0.120011946,-26.94153248,-64.04443068,4.406403
3.386180693,2.180650839,0.000185864,-0.001791562,,,3.998539913,1.340161377,-15.41787763,-43.64003421,2.719348303
3.388850699,4,-1.53E-05,-0.002896309,,,4.003080577,0.306425852,-24.92054987,-60.93344025,4.12018239
3.392887004,1.631182061,0.000171896,-0.001347953,,,4.007132399,0.94740763,-18.71869874,-50.19280397,3.211894142
3.394114643,0.24865175,4.41086E-05,-0.000244642,,,4.008474343,2.65675995,-7.394484412,-21.644519,1.234335987
3.394114643,0.24865175,4.41086E-05,-0.000244642,,,4.009224265,1.00144492,-18.23983631,-49.27782531,3.144567897
3.396211291,2.903110239,0.00016613,-0.002495479,,,4.010082304,2.29320593,-10.0810567,-27.71234439,1.680546544
3.396211291,2.903110239,0.00016613,-0.002495479,,,4.011400196,2.590131555,-7.846539666,-22.74591556,1.315095688
3.396623988,3.165388342,0.000133491,-0.002667574,,,4.012420887,2.998112,-5.320873607,-15.94568509,0.886912089
3.396623988,3.165388342,0.000133491,-0.002667574,,,4.01252926,3.971649718,-1.675103951,-0.41564602,0.508979652
3.399700802,2.630023989,0.000186972,-0.002267594,,,4.012590469,1.680609447,-12.80949765,-37.89331894,2.370519629
3.399700802,2.630023989,0.000186972,-0.002267594,,,4.012901616,3.303531644,-3.866125791,-10.90432744,0.651866093
3.3999946,3.65333862,4.84939E-05,-0.00286144,,,4.015630694,0.663272444,-21.32411755,-54.9241394,3.608500317
3.3999946,3.65333862,4.84939E-05,-0.00286144,,,4.015834129,2.692322751,-7.149953203,-21.02206363,1.203826022
3.402178393,0.49975829,8.23516E-05,-0.000477827,,,4.0176853,3.646048701,-2.741023962,-5.330266679,0.534201191
3.402178393,0.49975829,8.23516E-05,-0.000477827,,,4.019152191,3.097752888,-4.797498357,-14.26978109,0.809993165
3.404859645,3.425139698,9.13139E-05,-0.002790629,,,4.019745591,3.583174821,-2.904450047,-6.332188736,0.547068426
3.404859645,3.425139698,9.13139E-05,-0.002790629,,,4.020049119,3.033213191,-5.127117369,-15.33441755,0.866325793
3.407346729,2.361301678,0.000192831,-0.001996488,,,4.023670206,0.85073367,-19.56532709,-51.74935495,3.359988027
3.407346729,2.361301678,0.000192831,-0.001996488,,,4.02397096,2.377754142,-9.393443269,-26.24509412,1.590415433
3.413322578,0.752136196,0.000114423,-0.000697607,,,4.024691112,3.812119423,-2.360561421,-2.687128952,0.551568561
3.413322578,0.752136196,0.000114423,-0.000697607,,,4.026396902,0.452050885,-23.38369157,-58.41506417,3.929752385
3.416751948,1.875569411,0.000176325,-0.001493382,,,4.027677676,2.083646732,-11.8407703,-31.13429306,1.981725449
3.416751948,1.875569411,0.000176325,-0.001493382,,,4.028606312,0.514399113,-22.75581445,-57.36460909,3.839927659
3.422983699,1.002291185,0.000139731,-0.00090073,,,4.029219004,3.382068922,-3.550373536,-9.558461171,0.635047956
3.422983699,1.002291185,0.000139731,-0.00090073,,,4.02953423,3.762411639,-2.48803996,-3.438581749,0.572919931
3.424585528,3.788637245,2.14764E-05,-0.002880986,,,4.032195043,2.017832515,-12.43233646,-32.20883471,2.077735468
3.424585528,3.788637245,2.14764E-05,-0.002880986,,,4.032294334,3.673006124,-2.677671102,-4.854152785,0.564995458
3.427861122,2.087772341,0.000183486,-0.001673921,,,4.03348249,1.104205633,-17.32266532,-47.45693134,3.044479451
3.427861122,2.087772341,0.000183486,-0.001673921,,,4.037589164,1.973332348,-10.76737252,-32.92469454,2.132480478
3.429951809,3.077122459,0.000147961,-0.002609907,,,4.040684346,1.310461037,-15.60754052,-43.96927857,2.806152363
3.429951809,3.077122459,0.000147961,-0.002609907,,,4.042174823,1.74838922,-12.29552076,-36.64466803,2.34335891
3.430189844,1.254623268,0.00015865,-0.001090544,,,4.043088936,3.740560722,-2.533247568,-3.75069215,0.591015748
3.430189844,1.254623268,0.00015865,-0.001090544,,,4.045922642,2.756945493,-6.70054958,-19.82420697,1.17280149
3.430931031,3.929545748,-6.09E-06,-0.002889853,,,4.04615993,2.50233031,-8.429897421,-24.07406005,1.464631215
3.431524024,2.809652113,0.000177713,-0.002418396,,,4.047283798,2.906895552,-5.795800489,-17.32261706,1.021442044
3.431524024,2.809652113,0.000177713,-0.002418396,,,4.048214595,2.213574748,-10.68742241,-28.88796069,1.834984327
3.435762752,3.571661346,6.42776E-05,-0.002834783,,,4.048515294,3.222617387,-4.187762566,-12.09607639,0.760271972
3.436260897,3.332944945,0.000108641,-0.002746898,,,4.049507484,3.887978127,-2.211670317,-1.483403395,0.69079418
3.437091742,2.538747833,0.000193754,-0.002176499,,,4.049717042,2.313514122,-9.866515555,-27.2141728,1.705954174
3.444624293,1.506751471,0.000171627,-0.001264282,,,4.050141762,3.493692317,-3.160219295,-7.664883646,0.62635713
3.444624293,1.506751471,0.000171627,-0.001264282,,,4.052979802,1.874910418,-11.40956091,-34.49570556,2.240297731
3.449027158,2.26842318,0.000194422,-0.001888518,,,4.0568257,2.354924037,-9.529668525,-26.49344624,1.661965732
3.457473988,0.124325875,2.34599E-05,-0.000123652,,,4.058606592,3.322741196,-3.762404999,-10.41390097,0.714926131
3.465264541,2.983664333,0.000162396,-0.002543209,,,4.061624211,1.530124109,-13.87162332,-40.2072649,2.589439964
3.466171964,0.372977624,6.56096E-05,-0.00036082,,,4.064922657,3.359593676,-3.617055907,-9.786402363,0.706162521
3.466171964,0.372977624,6.56096E-05,-0.00036082,,,4.065129477,1.466294308,-14.35427125,-41.26027429,2.662261881
3.46654263,2,0.000178953,-0.001558549,,,4.07056763,0.241397395,-25.5040716,-61.74942043,4.315021932
3.46654263,2,0.000178953,-0.001558549,,,4.07547357,2.886592148,-5.88550088,-17.54455098,1.0800491
3.46666586,3.718182993,3.44389E-05,-0.002863049,,,4.076559233,0.420676498,-23.6257792,-58.73907185,4.042616436
3.46666586,3.718182993,3.44389E-05,-0.002863049,,,4.080764664,0.542544373,-22.40048077,-56.68506339,3.864842448
3.46666586,3.718182993,3.44389E-05,-0.002863049,,,4.081602185,2.230682003,-10.50005098,-28.46445523,1.856439948
3.46666586,3.718182993,3.44389E-05,-0.002863049,,,4.086950066,3.937920411,-2.11781368,-0.725054635,0.950240365
3.46666586,3.718182993,3.44389E-05,-0.002863049,,,4.087016343,3.238799168,-4.09210393,-11.67297642,0.810269519
3.46666586,3.718182993,3.44389E-05,-0.002863049,,,4.087184759,0.722939964,-20.65844901,-53.63664479,3.613101578
3.466836756,2.716193988,0.000187845,-0.002335804,,,4.088010712,3.439019534,-3.32483299,-8.399561035,0.712524515
3.466836756,2.716193988,0.000187845,-0.002335804,,,4.088271981,3.70962363,-2.607146612,-4.068003533,0.690983127
3.466836756,2.716193988,0.000187845,-0.002335804,,,4.088895414,2.453620589,-8.735901764,-24.71068027,1.579333906
3.466836756,2.716193988,0.000187845,-0.002335804,,,4.091830568,3.111876839,-4.670140772,-13.74267205,0.906444365
3.466836756,2.716193988,0.000187845,-0.002335804,,,4.095294749,2.104136978,-11.56605749,-30.51463754,2.046586189
3.466836756,2.716193988,0.000187845,-0.002335804,,,4.098773554,1.561524922,-13.5970494,-39.52777639,2.604434971
3.467662148,3.240750193,0.000125655,-0.002697259,,,4.106921627,1.232784808,-16.16054883,-44.99809457,2.978660659
3.467662148,3.240750193,0.000125655,-0.002697259,,,4.108870497,3.555364697,-2.967960526,-6.433784893,0.725235625
3.468489237,1.751138822,0.000178963,-0.001416835,,,4.110966871,2.583223955,-7.778259489,-22.45077169,1.45226384
3.468489237,1.751138822,0.000178963,-0.001416835,,,4.111517737,2.986587498,-5.294377622,-15.7311143,1.037997513
3.471530905,3.489984071,8.06644E-05,-0.002803148,,,4.112818375,1.680609447,-12.71042818,-37.4801392,2.503132579
3.473011363,3.859091497,5.09152E-06,-0.002879254,,,4.115159551,1.43103674,-14.57189741,-41.64092524,2.763877261
3.474482683,2.447471677,0.000198739,-0.002080431,,,4.115599922,2.837867326,-6.132153649,-18.18379105,1.182778727
3.475775932,0.624719847,0.000101718,-0.000586748,,,4.116571655,2.43438892,-8.845158152,-24.91348341,1.638831442
3.475775932,0.624719847,0.000101718,-0.000586748,,,4.118086826,3.420086792,-3.37774094,-8.577610052,0.772082769
3.479356866,4,-2.33E-05,-0.00288026,,,4.120573286,3.02825647,-5.066933677,-15.00119331,1.015458282
3.485437053,0.874874837,0.000130989,-0.0007967,,,4.12439794,3.8505329,-2.380891896,-1.772618023,0.885443299
3.490707587,2.175544682,0.000193752,-0.001775724,,,4.126794926,1.844268261,-11.55168035,-34.69441151,2.369360006
3.490707587,2.175544682,0.000193752,-0.001775724,,,4.127112588,2.021169155,-12.26872543,-31.75646065,2.20738026
3.493870686,1.126118373,0.000153693,-0.000992678,,,4.1286051,0.449669414,-23.25280825,-58.04214428,4.065683503
3.500577274,2.890206207,0.00017567,-0.002470851,,,4.128682339,2.121244233,-11.36941542,-30.0867016,2.06835621
3.50098997,3.15248431,0.000141574,-0.002643776,,,4.130331617,3.12805862,-4.563777977,-13.30821788,0.951967465
3.50107683,1.378450455,0.000169803,-0.001174223,,,4.130601122,0.509189063,-22.65544994,-57.03851374,3.977769428
3.50107683,1.378450455,0.000169803,-0.001174223,,,4.132970934,3.610075505,-2.829647742,-5.453789029,0.773367784
3.502434012,3.636505719,5.09888E-05,-0.002839685,,,4.133516001,1.968342567,-10.71962621,-32.60457354,2.272583818
3.502434012,3.636505719,5.09888E-05,-0.002839685,,,4.134798716,0.120011946,-26.71678707,-63.50291654,4.605360595
3.504227696,2.624917832,0.000196396,-0.002249559,,,4.137266705,2.64782477,-7.308876909,-21.25672767,1.41266514
3.504227696,2.624917832,0.000196396,-0.002249559,,,4.142401253,0.306425852,-24.70125281,-60.37533906,4.308630586
3.507299058,3.408306797,9.73574E-05,-0.002766655,,,4.142961014,2.313476407,-9.745505113,-26.81823226,1.827303287
3.507299058,3.408306797,9.73574E-05,-0.002766655,,,4.143219805,1.543309773,-13.68730459,-39.64226713,2.680386376
3.511873623,2.356195521,0.000201749,-0.001979517,,,4.144626491,2.683387572,-7.066004321,-20.63026794,1.382900284
3.511873623,2.356195521,0.000201749,-0.001979517,,,4.144982094,2.962485127,-5.39499539,-15.98249256,1.10646456
3.515091694,3.788637245,1.79908E-05,-0.002864488,,,4.145489316,2.750037893,-6.638458319,-19.51461952,1.312589918
3.515091694,3.788637245,1.79908E-05,-0.002864488,,,4.147579967,3.637032928,-2.770782937,-4.957499835,0.808427205
3.51827992,1.875569411,0.000183005,-0.001485702,,,4.147891697,2.248495543,-10.26421747,-27.88136509,1.919858903
3.520226527,1.626708232,0.000180118,-0.001336757,,,4.14894922,2.348359374,-9.462684913,-26.20895149,1.789689303
3.520226527,1.626708232,0.000180118,-0.001336757,,,4.150259097,1.665265333,-12.78443254,-37.5745392,2.567376078
3.520833333,0,0,0,,,4.151687374,0.025585158,-27.74408721,-64.99397093,4.792496867
3.521437198,3.929545748,-1.27E-05,-0.002872961,,,4.154081407,0.651740621,-21.23621628,-54.55198206,3.796683708
3.529389095,2.087772341,0.000190822,-0.001664902,,,4.158507883,3.812100578,-2.499533139,-2.205130445,0.955055238
3.529531309,0.24865175,4.65707E-05,-0.00024322,,,4.159393089,0.839429052,-19.48483565,-51.37936649,3.540279611
3.534317791,3.064218427,0.000156755,-0.002585109,,,4.163978023,3.518794534,-3.062782882,-6.771031085,0.834153388
3.534317791,3.064218427,0.000156755,-0.002585109,,,4.164235649,1.828924147,-11.62309289,-34.78589086,2.434095013
3.535890006,2.796748082,0.000187544,-0.00239297,,,4.166262395,3.259267738,-3.959423609,-10.98522198,0.923933159
3.535890006,2.796748082,0.000187544,-0.00239297,,,4.166278262,3.047466022,-4.931434099,-14.47663664,1.065827937
3.538202165,3.554828444,6.82974E-05,-0.002811289,,,4.166747325,2.041477348,-12.02625434,-31.24495847,2.233798456
3.538202165,3.554828444,6.82974E-05,-0.002811289,,,4.167383803,1.453366814,-14.34349848,-41.04173231,2.805504058
3.538229286,0.497303499,8.64984E-05,-0.000472766,,,4.167410213,3.325782735,-3.69657674,-9.889970711,0.893169586
3.538229286,0.497303499,8.64984E-05,-0.000472766,,,4.169205373,1.092901015,-17.25045886,-47.07966143,3.223379564
3.538229286,0.497303499,8.64984E-05,-0.000472766,,,4.172062589,3.790249661,-2.522822349,-2.451813667,0.962508344
3.538229286,0.497303499,8.64984E-05,-0.000472766,,,4.172725058,2.558258849,-7.879944272,-22.59320545,1.561151738
3.538229286,0.497303499,8.64984E-05,-0.000472766,,,4.172730752,3.356826601,-3.579746485,-9.357725427,0.888965028
3.538229286,0.497303499,8.64984E-05,-0.000472766,,,4.174364961,1.501810046,-13.96710985,-40.2001166,2.763148839
3.538700309,3.316112044,0.000115849,-0.002721454,,,4.175980489,2.412120589,-8.938329935,-25.02155691,1.743074451
3.538700309,3.316112044,0.000115849,-0.002721454,,,4.177041388,2.879545715,-5.829162052,-17.21354376,1.226244725
3.541618636,2.533641676,0.000203183,-0.002158319,,,4.177396888,3.681813506,-2.690527257,-4.106110385,0.888020126
3.541618636,2.533641676,0.000203183,-0.002158319,,,4.177962253,1.950127418,-10.80200816,-32.71036172,2.35002119
3.547890407,0.747458488,0.000119927,-0.000689423,,,4.179135059,1.298929214,-15.54123281,-43.57816656,2.990588158
3.553554052,2.263317023,0.000202906,-0.00187159,,,4.182693858,0.932784782,-18.61849066,-49.71080076,3.443708513
3.553554052,2.263317023,0.000202906,-0.00187159,,,4.183823027,3.889483931,-2.485003765,-0.923851703,1.200949396
3.557551528,0.997613478,0.000146572,-0.000891394,,,4.184288377,2.163891497,-10.92312596,-29.12918862,2.083686181
3.557551528,0.997613478,0.000146572,-0.000891394,,,4.184785724,0.986822071,-18.14191681,-48.79380137,3.375964065
3.563517529,3.859091497,-1.43E-08,-0.002861397,,,4.186243755,0.330848963,-24.37614872,-59.78446017,4.327673234
3.563517529,3.859091497,-1.43E-08,-0.002861397,,,4.187057037,2.980097945,-5.264165991,-15.49601701,1.150499629
3.564757672,1.24994556,0.000166484,-0.001080059,,,4.187978808,3.748037107,-2.590327804,-3.018985702,0.959456256
3.568070602,2,0.000185558,-0.001550038,,,4.191219375,3.404884767,-3.40641222,-8.484735195,0.904602678
3.568070602,2,0.000185558,-0.001550038,,,4.194054138,3.499861792,-3.113939506,-6.930385553,0.891925838
3.569630524,2.970760301,0.000171771,-0.002517471,,,4.196062741,0.623642708,-21.44339935,-54.8437372,3.889178534
3.569775997,2.708087678,0.000197347,-0.002314047,,,4.199297656,3.023409868,-5.027918285,-14.71932349,1.132373346
3.569775997,2.708087678,0.000197347,-0.002314047,,,4.199443784,2.020308192,-12.17156577,-31.44873982,2.31043527
3.569863033,4,-3.19E-05,-0.00286195,,,4.199748526,3.173656543,-4.306807499,-12.23317515,1.025789299
3.57001721,1.751138822,0.00018565,-0.001409302,,,4.200401299,2.539027181,-7.982379922,-22.78679146,1.619274305
3.571963817,1.502277643,0.000179657,-0.001253229,,,4.204255298,1.981784851,-10.57567745,-32.06583582,2.361565666
3.571963817,1.502277643,0.000179657,-0.001253229,,,4.212484562,2.894382436,-5.711911536,-16.79869404,1.260897593
3.571963817,1.502277643,0.000179657,-0.001253229,,,4.215704181,2.765935814,-6.467161787,-18.92341686,1.389086849
3.571963817,1.502277643,0.000179657,-0.001253229,,,4.217797497,1.6764148,-12.63964744,-37.0869529,2.645124737
3.571963817,1.502277643,0.000179657,-0.001253229,,,4.218056022,3.580370969,-2.910349532,-5.509379692,0.941241973
3.571963817,1.502277643,0.000179657,-0.001253229,,,4.223127828,1.317739666,-15.3413539,-43.06673085,3.023239125
3.572028131,3.227846161,0.000133252,-0.002672138,,,4.225486014,0.149410276,-26.23912878,-62.63622653,4.684430894
3.573970317,3.47315117,8.60347E-05,-0.002777997,,,4.227169368,2.117734175,-11.26069778,-29.70047946,2.206432101
3.573970317,3.47315117,8.60347E-05,-0.002777997,,,4.228602476,1.802935998,-11.74411398,-34.92742077,2.544002808
3.575393625,3.713422309,3.29352E-05,-0.002840949,,,4.231233973,1.59100405,-13.24510238,-38.452521,2.745009276
3.575393625,3.713422309,3.29352E-05,-0.002840949,,,4.232351906,2.637860453,-7.26924465,-20.98234515,1.54685999
3.579009576,2.44236552,0.000208017,-0.002062213,,,4.23539855,3.612372392,-2.846489767,-4.901958435,0.983193285
3.579009576,2.44236552,0.000208017,-0.002062213,,,4.240787429,2.493014235,-8.26173716,-23.36458011,1.725625548
3.592235559,2.175544682,0.000201705,-0.001765345,,,4.241088781,2.680077407,-6.982836604,-20.23423029,1.51194696
3.592890655,0.124325875,2.47571E-05,-0.00012291,,,4.244438282,2.245054642,-10.16155537,-27.49467046,2.050312441
3.601588631,0.372977624,6.91385E-05,-0.000358596,,,4.244884639,3.127710334,-4.486592705,-12.76672032,1.122497244
3.601588631,0.372977624,6.91385E-05,-0.000358596,,,4.247484961,0.802422611,-19.70050574,-51.61598406,3.69662686
3.604943256,2.877302175,0.00018545,-0.002444301,,,4.249290754,3.676218459,-2.740416674,-3.804980146,1.042121717
3.604943256,2.877302175,0.00018545,-0.002444301,,,4.24994811,3.466557147,-3.203974361,-7.177249738,0.994544888
3.605355952,3.139580278,0.000149997,-0.002617628,,,4.251147355,2.780772535,-6.340864759,-18.50267684,1.420676472
3.607166937,2.616811522,0.00020595,-0.002227476,,,4.25333285,3.851247923,-2.641429307,-1.006860669,1.275795883
3.60973847,3.391473896,0.000103905,-0.002739948,,,4.253759676,3.557895723,-2.967518082,-5.675550189,1.004844642
3.60973847,3.391473896,0.000103905,-0.002739948,,,4.254712276,2.09990166,-11.37667365,-29.86737257,2.269302575
3.60973847,3.391473896,0.000103905,-0.002739948,,,4.256232668,1.883726952,-11.175304,-33.45347341,2.512603237
3.60973847,3.391473896,0.000103905,-0.002739948,,,4.257470092,1.556045427,-13.47661619,-38.91624409,2.813071941
3.60973847,3.391473896,0.000103905,-0.002739948,,,4.25910871,0.449050093,-23.05605211,-57.49426145,4.232926994
3.60973847,3.391473896,0.000103905,-0.002739948,,,4.259700879,1.117985498,-16.92806694,-46.25550899,3.301101315
3.610343761,0.62004214,0.000106394,-0.000578999,,,4.260790123,0.499188373,-22.55543902,-56.64712475,4.156684127
3.610343761,0.62004214,0.000106394,-0.000578999,,,4.262978774,3.761880595,-2.665794777,-2.363049643,1.154576937
3.611161778,3.631745035,5.12587E-05,-0.002816388,,,4.265206645,2.615030349,-7.384964298,-21.2031336,1.614202413
3.611943364,3.929545748,-1.97E-05,-0.002853643,,,4.267846804,2.309025503,-9.615804908,-26.31234417,1.993843579
3.611943364,3.929545748,-1.97E-05,-0.002853643,,,4.269328515,0.173833387,-25.8981312,-62.04131968,4.703130409
3.616400516,2.351089364,0.000210714,-0.001961372,,,4.269423775,3.825308483,-2.673651393,-1.316754784,1.267208672
3.616400516,2.351089364,0.000210714,-0.001961372,,,4.272527074,2.408679688,-8.84223684,-24.62156106,1.870084811
3.616400516,2.351089364,0.000210714,-0.001961372,,,4.272699582,3.107445863,-4.562170903,-12.95780731,1.175999263
3.616400516,2.351089364,0.000210714,-0.001961372,,,4.273835009,2.34390847,-9.334772935,-25.69937301,1.955273957
3.616400516,2.351089364,0.000210714,-0.001961372,,,4.276219042,0.355958542,-23.970962,-58.97563844,4.404353882
3.616400516,2.351089364,0.000210714,-0.001961372,,,4.278381456,1.910394603,-10.98108191,-32.90449117,2.521121708
3.619807892,1.875569411,0.000189672,-0.00147732,,,4.278558433,3.258926314,-3.905392876,-10.42297896,1.099574285
3.620004882,0.870197129,0.000137191,-0.000787722,,,4.278644996,3.612834821,-2.861137559,-4.644618918,1.067145678
3.621754499,1.626708232,0.00018675,-0.001329432,,,4.281852727,2.907461726,-5.576928222,-16.23403734,1.342794128
3.621754499,1.626708232,0.00018675,-0.001329432,,,4.282451946,2.973234511,-5.221735432,-15.13553887,1.288398025
3.62381946,3.783876561,1.47935E-05,-0.002840865,,,4.283088571,0.030372395,-27.45413225,-64.35898922,4.980004425
3.628438515,1.121440665,0.000161059,-0.000982462,,,4.283163724,2.697690225,-6.824850119,-19.73013753,1.54704798
3.630917067,2.087772341,0.000198168,-0.00165502,,,4.284106021,0.591141475,-21.62451846,-55.00096186,4.045017499
3.635644659,1.373772748,0.000177991,-0.001162771,,,4.285720782,3.676608001,-2.765460828,-3.575108398,1.116990751
3.635644659,1.373772748,0.000177991,-0.001162771,,,4.28940056,3.580747968,-2.926950912,-5.098629873,1.075750545
3.638683774,3.051314395,0.000165838,-0.002558055,,,4.289466295,0.774324698,-19.89869853,-51.89901464,3.785637389
3.638683774,3.051314395,0.000165838,-0.002558055,,,4.289525335,2.017107256,-12.0652575,-31.07728265,2.440755809
3.638829247,2.788641772,0.000197008,-0.002369834,,,4.292763224,3.009719695,-5.025176147,-14.47461288,1.27385872
3.643066291,3.303208013,0.000122824,-0.002694775,,,4.293578468,1.984655886,-10.48840651,-31.59664372,2.484252723
3.643066291,3.303208013,0.000122824,-0.002694775,,,4.297589999,1.420308897,-14.45879582,-41.00240917,3.002507129
3.644557878,2.525535366,0.000212631,-0.002136026,,,4.298888328,2.535517123,-7.89089478,-22.36546984,1.747890663
3.64692993,3.55006776,7.01678E-05,-0.002786879,,,4.299408801,3.762270137,-2.71322162,-2.10680227,1.229541182
3.655082024,2.263317023,0.000211355,-0.001859726,,,4.303470801,1.461116603,-14.14117132,-40.29026427,2.967014216
3.655082024,2.263317023,0.000211355,-0.001859726,,,4.303515412,3.404543342,-3.382160146,-7.889277873,1.091679171
3.65625,0,0,0,,,4.303693648,1.136795951,-16.71796992,-45.73620872,3.330528922
3.660369199,4,-4.11E-05,-0.002841057,,,4.304908476,2.633581671,-7.217415321,-20.69214987,1.643639398
3.660369199,4,-4.11E-05,-0.002841057,,,4.304975003,2.222721041,-10.26083807,-27.57286008,2.159163725
3.660369199,4,-4.11E-05,-0.002841057,,,4.307981943,1.73013785,-12.17728715,-35.76652878,2.713276099
3.664947976,0.24865175,4.90478E-05,-0.000241675,,,4.30860716,3.499513506,-3.114236783,-6.304275196,1.09431065
3.664947976,0.24865175,4.90478E-05,-0.000241675,,,4.311742122,2.819632293,-6.050208865,-17.54380732,1.461701174
3.669598575,2,0.000192134,-0.001540749,,,4.312668372,3.325341093,-3.643609661,-9.138812449,1.125494812
3.669598575,2,0.000192134,-0.001540749,,,4.312670221,3.825770912,-2.74321163,-0.974656743,1.344907577
3.671545182,1.751138822,0.000192315,-0.001401114,,,4.312944117,0.917104661,-18.58512893,-49.38928112,3.618898771
3.671545182,1.751138822,0.000192315,-0.001401114,,,4.313277896,1.321018734,-15.21487292,-42.59480184,3.129019298
3.672245295,3.854330812,-5.15E-06,-0.002836134,,,4.313483513,2.080244765,-11.46247389,-29.90903672,2.377301371
3.672715239,2.699981368,0.000206961,-0.002290631,,,4.314128679,2.674024593,-6.943615569,-19.96722576,1.611333014
3.672715239,2.699981368,0.000206961,-0.002290631,,,4.315427391,0.981252862,-18.02211214,-48.29824921,3.538096046
3.673319303,0.493332946,9.03625E-05,-0.000466142,,,4.317988912,3.356384959,-3.534716338,-8.596664121,1.124809388
3.673319303,0.493332946,9.03625E-05,-0.000466142,,,4.330219693,3.078602273,-4.659766186,-13.12585843,1.275721502
3.673996506,2.957856269,0.000181375,-0.002489595,,,4.332332435,2.551144422,-7.743144091,-21.93163752,1.771077429
3.673996506,2.957856269,0.000181375,-0.002489595,,,4.332495487,1.92802558,-10.82326978,-32.34710428,2.580851824
3.676394113,3.21494213,0.000141171,-0.002644406,,,4.332517911,2.204888525,-10.36913616,-27.73275464,2.21957664
3.676394113,3.21494213,0.000141171,-0.002644406,,,4.335134438,0.059365311,-27.0333998,-63.64994095,5.00211592
3.681948818,2.43425921,0.000217199,-0.002039828,,,4.338630399,3.518763826,-3.071638561,-5.8044772,1.145692104
3.681948818,2.43425921,0.000217199,-0.002039828,,,4.339944473,2.426427958,-8.624915552,-23.98356308,1.931559972
3.682458236,0.742780781,0.000125389,-0.00068088,,,4.340450128,0.234573092,-25.12535868,-60.71444473,4.693552081
3.682458236,0.742780781,0.000125389,-0.00068088,,,4.340862893,1.512434872,-13.7172049,-39.25015263,2.960896328
3.682698083,3.468390486,8.93381E-05,-0.002752588,,,4.346827524,3.238009239,-3.957015503,-10.3847471,1.209341766
3.682698083,3.468390486,8.93381E-05,-0.002752588,,,4.347890151,1.660496363,-12.6318846,-36.73595612,2.827600814
3.684121391,3.708661625,3.15673E-05,-0.002815116,,,4.348278709,3.683640726,-2.806847722,-3.041041744,1.233996305
3.684121391,3.708661625,3.15673E-05,-0.002815116,,,4.351604867,2.770029934,-6.306817437,-18.16080804,1.560051065
3.692119357,0.99293577,0.000153374,-0.000881534,,,4.35631435,0.707630563,-20.4180595,-52.71197598,3.959480887
3.692119357,0.99293577,0.000153374,-0.000881534,,,4.35886063,3.749864327,-2.786081205,-1.876524736,1.313927224
3.693763532,2.175544682,0.000209671,-0.001753971,,,4.358912294,1.789560451,-11.72334491,-34.52398087,2.727951554
3.693763532,2.175544682,0.000209671,-0.001753971,,,4.360153989,2.302450211,-9.543435184,-25.95738888,2.118621185
3.699325501,1.245267853,0.000174279,-0.00106887,,,4.360321291,3.639307746,-2.862404066,-3.685055901,1.22273286
3.699325501,1.245267853,0.000174279,-0.00106887,,,4.362780574,0.88374935,-18.8131003,-49.71681647,3.721473439
3.707882497,2.869195866,0.000194748,-0.002419588,,,4.367262647,2.343860126,-9.211937444,-25.2259395,2.071823894
3.70846056,1.501260746,0.00018837,-0.001242949,,,4.367651642,1.003582936,-17.76286083,-47.67547772,3.570367261
3.70846056,1.501260746,0.00018837,-0.001242949,,,4.369381585,3.612278359,-2.903267578,-4.066378776,1.222555888
3.709721934,3.126676246,0.000158686,-0.002588981,,,4.37338858,2.442055257,-8.468271666,-23.54578243,1.952808464
3.709721934,3.126676246,0.000158686,-0.002588981,,,4.373633418,2.16140791,-10.67283183,-28.24907129,2.334966959
3.710106179,2.608705212,0.000215566,-0.00220385,,,4.37412627,1.62553774,-12.85749017,-37.19111332,2.892992528
3.712836299,3.379667368,0.000109829,-0.002712189,,,4.374642468,3.217744769,-4.025319338,-10.557571,1.257501352
3.712836299,3.379667368,0.000109829,-0.002712189,,,4.375561643,1.181134941,-16.26720048,-44.64788635,3.362312787
3.716413566,2.347203083,0.000219311,-0.001943938,,,4.377689188,2.750094432,-6.401772295,-18.35230243,1.612061885
3.716413566,2.347203083,0.000219311,-0.001943938,,,4.377898008,3.419296863,-3.328680092,-7.194649991,1.203643563
3.719889543,3.626984351,5.1664E-05,-0.002789318,,,4.380330971,2.896930782,-5.550277094,-15.877343,1.479933775
3.72067113,3.924785064,-2.71E-05,-0.002826633,,,4.381061082,1.816228102,-11.52424809,-33.96716467,2.734572301
3.72067113,3.924785064,-2.71E-05,-0.002826633,,,4.384803913,3.792524479,-2.829540469,-0.964092608,1.400407885
3.721335865,1.875569411,0.0001963,-0.001468211,,,4.385379201,0.028992917,-27.27707372,-63.92671308,5.132036555
3.721335865,1.875569411,0.0001963,-0.001468211,,,4.390777701,3.556854356,-3.003029578,-4.834939105,1.233862601
3.728307321,0.124325875,2.60605E-05,-0.000122107,,,4.392850448,2.281281056,-9.665682537,-26.14040127,2.187940061
3.728307321,0.124325875,2.60605E-05,-0.000122107,,,4.39570567,2.630286304,-7.139409136,-20.26383117,1.758895343
3.732445039,2.087772341,0.000205493,-0.001644236,,,4.397663236,2.56631699,-7.563702874,-21.32777295,1.832968352
3.732445039,2.087772341,0.000205493,-0.001644236,,,4.403472604,2.664354694,-6.9105865,-19.64859736,1.731493484
3.732547226,3.779115877,1.1723E-05,-0.002813154,,,4.406964477,2.362411448,-9.017726379,-24.70314526,2.095578883
3.736678648,0.369007071,7.19851E-05,-0.000352553,,,4.407715507,0.168209399,-25.7113325,-61.51242503,4.902071183
3.741768489,2.780535462,0.000206559,-0.002344848,,,4.407760572,2.080244765,-11.31817039,-29.42707189,2.501700304
3.743049756,3.038410363,0.000175128,-0.002528629,,,4.407921247,3.438547183,-3.273420155,-6.68099604,1.244890882
3.743049756,3.038410363,0.000175128,-0.002528629,,,4.4090296,3.163872045,-4.22987287,-11.24787263,1.330323957
3.743049756,3.038410363,0.000175128,-0.002528629,,,4.409836391,2.959612431,-5.192266968,-14.65858757,1.465944158
3.743049756,3.038410363,0.000175128,-0.002528629,,,4.411475427,2.017107256,-11.87322614,-30.46085029,2.606647756
3.743049756,3.038410363,0.000175128,-0.002528629,,,4.411874953,1.855227432,-11.23884007,-33.15799054,2.743238497
3.743049756,3.038410363,0.000175128,-0.002528629,,,4.41187946,0.350445361,-23.80110041,-58.44920338,4.586256316
3.7452769,4,-5.01E-05,-0.002818801,,,4.414319403,0.909586727,-18.51679675,-49.03380193,3.746374631
3.745433778,0.616071587,0.000111133,-0.000571556,,,4.41552856,1.984655886,-10.39902138,-30.98015856,2.650727377
3.74616412,3.291401485,0.000129811,-0.002666009,,,4.416707197,0.965272112,-18.02944006,-48.08351983,3.676055463
3.747497119,2.517429056,0.00022209,-0.002112312,,,4.4196845,3.321643377,-3.624887263,-8.550117543,1.280051349
3.747497119,2.517429056,0.00022209,-0.002112312,,,4.419766438,0.585628293,-21.47125792,-54.46388592,4.215961407
3.754572711,0.865519422,0.000143336,-0.000778298,,,4.420147669,2.996097615,-4.998601671,-13.9865819,1.451173856
3.754572711,0.865519422,0.000143336,-0.000778298,,,4.426000565,3.358495857,-3.503624441,-7.894922999,1.27959311
3.755095074,2.259430742,0.000219495,-0.001842584,,,4.426772546,1.92802558,-10.75179013,-31.8652157,2.70690555
3.755657696,3.545307076,7.21456E-05,-0.002758728,,,4.427853287,0.76870071,-19.75507771,-51.3424203,3.955208217
3.755657696,3.545307076,7.21456E-05,-0.002758728,,,4.4286898,2.204888525,-10.23068334,-27.22959661,2.340405914
3.758251243,1.625691336,0.000195589,-0.001317996,,,4.428697937,3.068071329,-4.64446116,-12.73002391,1.412082315
3.763006344,1.116762958,0.000168367,-0.000971626,,,4.429402881,2.481982444,-8.111711029,-22.57051105,1.970516267
3.763006344,1.116762958,0.000168367,-0.000971626,,,4.430945562,2.300846132,-9.459340306,-25.60706522,2.207331082
3.771126547,2,0.000198651,-0.001530653,,,4.431047338,1.566157922,-13.23337287,-37.89887806,3.019110505
3.771126547,2,0.000198651,-0.001530653,,,4.431991321,3.713298982,-2.859473009,-1.920898882,1.372884702
3.771126547,2,0.000198651,-0.001530653,,,4.433199858,1.716051457,-12.1653339,-35.37485079,2.885702242
3.771126547,2,0.000198651,-0.001530653,,,4.434095483,2.726121111,-6.491912821,-18.43734312,1.70413158
3.771126547,2,0.000198651,-0.001530653,,,4.434589368,0.441918633,-22.84485327,-56.80803895,4.461711684
3.771126547,2,0.000198651,-0.001530653,,,4.436270781,0.492056914,-22.34882765,-55.95795894,4.382408296
3.772141403,1.372755851,0.000186434,-0.001152858,,,4.437950933,2.340566609,-9.142884513,-24.90128902,2.1617756
3.77565448,2.691875058,0.000216617,-0.00226549,,,4.440326519,2.870017756,-5.646885548,-15.98256212,1.576891697
3.77565448,2.691875058,0.000216617,-0.00226549,,,4.441691377,1.096669931,-16.88455839,-45.7449898,3.53961917
3.776935747,2.94974996,0.00019037,-0.002463085,,,4.444345003,3.494840551,-3.138019011,-5.49497813,1.29496477
3.776935747,2.94974996,0.00019037,-0.002463085,,,4.448556721,1.281683299,-15.37584406,-42.59281515,3.332537856
3.779491942,3.203135602,0.000149045,-0.002614783,,,4.45004079,0.142624241,-25.90765237,-61.74099095,5.006451454
3.780973061,3.849570128,-1.01E-05,-0.00280639,,,4.452703894,3.297587224,-3.696706533,-8.737283176,1.329962454
3.780973061,3.849570128,-1.01E-05,-0.00280639,,,4.459492903,1.74770889,-11.92461043,-34.70717498,2.891655644
3.781961867,2.430372929,0.000226088,-0.00202088,,,4.460780438,2.221369793,-10.04957004,-26.77800619,2.355672637
3.785795912,3.456583958,9.42948E-05,-0.002722613,,,4.461641449,3.381348103,-3.427437632,-7.274541723,1.321103612
3.791666667,0,0,0,,,4.464345014,1.674551729,-12.42779224,-35.90769311,2.960605965
3.791666667,0,0,0,,,4.46641084,2.850082254,-5.735025693,-16.16274422,1.625235461
3.791666667,0,0,0,,,4.468605966,3.677671554,-2.896581631,-2.23425545,1.386203292
3.792849156,3.703900941,3.03073E-05,-0.002784998,,,4.46913938,2.435167593,-8.398040345,-23.13543504,2.075122015
3.792849156,3.703900941,3.03073E-05,-0.002784998,,,4.471268669,0.790465651,-19.49690586,-50.76233187,3.974036343
3.793776581,2.171658401,0.000217202,-0.001737225,,,4.472577055,1.369427378,-14.66541137,-40.99250523,3.265591793
3.800037994,0.244681196,5.07612E-05,-0.00023628,,,4.472834257,2.09990166,-11.04585345,-28.74842965,2.554161602
3.80557883,3.924785064,-3.38E-05,-0.002802254,,,4.474490313,3.586512612,-2.982218748,-3.733591091,1.350378443
3.808041926,1.750121925,0.000201186,-0.001388441,,,4.475099979,3.207002168,-4.021984402,-10.10962317,1.39270584
3.808409321,0.489362393,9.41633E-05,-0.000459298,,,4.476141717,1.473099436,-13.87577731,-39.22941396,3.163622673
3.808409321,0.489362393,9.41633E-05,-0.000459298,,,4.477232971,1.816228102,-11.4464991,-33.46564194,2.85792465
3.810821739,2.861089556,0.0002041,-0.002392817,,,4.477666259,3.650642167,-2.917260927,-2.622314372,1.37981333
3.810821739,2.861089556,0.0002041,-0.002392817,,,4.478457857,1.410235084,-14.34707238,-40.27506378,3.229937927
3.812819764,3.114869719,0.000167274,-0.002558646,,,4.479400568,3.745226152,-2.901927125,-0.987838963,1.442486055
3.812819764,3.114869719,0.000167274,-0.002558646,,,4.483014893,1.064397582,-17.10316512,-46.08121596,3.625980546
3.81304542,2.600598902,0.000225174,-0.00217863,,,4.491527503,2.559565031,-7.501408611,-20.90989723,1.950296672
3.81304542,2.600598902,0.000225174,-0.00217863,,,4.493316359,3.468801526,-3.198675921,-5.582208334,1.352494015
3.815934128,3.36786084,0.00011598,-0.002681294,,,4.495241813,2.416765894,-8.498494669,-23.29631862,2.128613587
3.815934128,3.36786084,0.00011598,-0.002681294,,,4.495793718,3.311671633,-3.636485517,-8.211939302,1.378113607
3.816426616,2.343316802,0.000227859,-0.001925336,,,4.496503436,1.910394603,-10.81387336,-31.7860111,2.810417738
3.816426616,2.343316802,0.000227859,-0.001925336,,,4.500111405,0.318093515,-23.97830911,-58.56954905,4.752140971
3.817548253,0.738810228,0.000130893,-0.000672535,,,4.500455939,3.379834835,-3.426170739,-7.031558159,1.367729544
3.826687186,0.988258063,0.000160099,-0.000871137,,,4.500541539,3.083081183,-4.530284718,-12.02886604,1.489429046
3.826687186,0.988258063,0.000160099,-0.000871137,,,4.502583271,2.020308192,-11.69486624,-29.91594243,2.720922956
3.826687186,0.988258063,0.000160099,-0.000871137,,,4.502684332,2.8034196,-5.966700947,-16.72956033,1.709069505
3.826687186,0.988258063,0.000160099,-0.000871137,,,4.50370506,2.946236631,-5.188294936,-14.31465075,1.588665204
3.826687186,0.988258063,0.000160099,-0.000871137,,,4.504924895,2.116382928,-10.85450743,-28.29430452,2.568157764
3.826687186,0.988258063,0.000160099,-0.000871137,,,4.506771678,1.72979509,-12.00781385,-34.75513909,2.965223675
3.828617309,3.622223666,5.21124E-05,-0.00275803,,,4.507394786,1.981784851,-10.35279809,-30.53287489,2.773716851
3.828617309,3.622223666,5.21124E-05,-0.00275803,,,4.509930391,0.61088726,-21.09336842,-53.59820024,4.281997083
3.8301846,4,-5.94E-05,-0.002793423,,,4.51139807,3.218866621,-3.959832803,-9.66935703,1.429886219
3.832458089,2.08388606,0.000212254,-0.001627989,,,4.512123999,1.58541172,-13.01816064,-37.15101019,3.098725215
3.832458089,2.08388606,0.000212254,-0.001627989,,,4.514327351,1.688295362,-12.28822783,-35.41077508,3.009687021
3.835822245,1.244250956,0.000182362,-0.001059417,,,4.515945679,2.989548555,-4.961254549,-13.5068833,1.569954548
3.841274991,3.774355192,8.78212E-06,-0.002780713,,,4.516283592,3.34964584,-3.511254461,-7.429003794,1.391522821
3.841274991,3.774355192,8.78212E-06,-0.002780713,,,4.516496511,0.024423111,-27.0694187,-63.39091405,5.327972638
3.84470773,2.772429152,0.000216118,-0.002317943,,,4.51705976,1.80113784,-11.51575911,-33.50294016,2.91968257
3.84470773,2.772429152,0.000216118,-0.002317943,,,4.517121804,2.62155245,-7.063354961,-19.71230564,1.909237411
3.844957304,1.50024385,0.000197,-0.001231667,,,4.519918397,2.30113459,-9.33382494,-25.10295498,2.311813492
3.844957304,1.50024385,0.000197,-0.001231667,,,4.524160527,2.238716364,-9.817807219,-26.12972979,2.405837666
3.846021716,3.029985056,0.000183721,-0.002499871,,,4.524888737,2.65562084,-6.836990544,-19.08997393,1.880967174
3.846021716,3.029985056,0.000183721,-0.002499871,,,4.525819596,2.334594405,-9.069449932,-24.50487794,2.272362105
3.847510168,2.513542775,0.000231142,-0.002091681,,,4.526012986,3.467526777,-3.20080093,-5.361897197,1.387212658
3.84926195,3.279594957,0.000136966,-0.002634256,,,4.52795975,2.719369151,-6.438800736,-17.99414168,1.818347528
3.855108123,2.255544461,0.00022755,-0.001824384,,,4.532310185,3.587381977,-2.996897737,-3.268732192,1.406656477
3.857832608,1.874552514,0.000205104,-0.001454212,,,4.534670015,2.922571,-5.286266412,-14.51823309,1.642006383
3.857832608,1.874552514,0.000205104,-0.001454212,,,4.536112613,1.226732127,-15.71420664,-43.06692747,3.493789828
3.858755525,3.533500548,7.59472E-05,-0.002726174,,,4.536330225,1.895304341,-10.88201514,-31.81888017,2.871857415
3.863397339,0.120355322,2.65182E-05,-0.000117423,,,4.53683963,3.094945636,-4.455420926,-11.59122055,1.523158202
3.863397339,0.120355322,2.65182E-05,-0.000117423,,,4.538984746,0.114561147,-26.03957379,-61.78320574,5.179377327
3.865880761,3.849570128,-1.50E-05,-0.002779779,,,4.540678385,2.039873269,-11.45790464,-29.37504105,2.736549131
3.868545892,2,0.000204825,-0.001520182,,,4.542436688,0.292508357,-24.16453527,-58.79114634,4.849980688
3.868545892,2,0.000204825,-0.001520182,,,4.543000164,0.901425959,-18.41656916,-48.52617883,3.901954031
3.871768666,0.365036518,7.47572E-05,-0.000346363,,,4.545011599,0.948334324,-18.00850262,-47.72314581,3.842223418
3.878593721,2.683768748,0.000226234,-0.002238572,,,4.547815443,3.708198301,-2.934611412,-1.048746551,1.460573374
3.878593721,2.683768748,0.000226234,-0.002238572,,,4.549499368,2.535522904,-7.596170381,-20.97130047,2.042798844
3.878593721,2.683768748,0.000226234,-0.002238572,,,4.551841198,2.395665852,-8.579222525,-23.32125735,2.21973375
3.878593721,2.683768748,0.000226234,-0.002238572,,,4.553345773,0.632652201,-20.82295296,-53.01262862,4.297929852
3.878593721,2.683768748,0.000226234,-0.002238572,,,4.55422822,1.596989109,-12.89670787,-36.72860987,3.137884032
3.878593721,2.683768748,0.000226234,-0.002238572,,,4.554673561,1.963871051,-10.4326124,-30.56772028,2.846318192
3.879907708,2.941324652,0.00019942,-0.00243407,,,4.558287681,2.15755322,-10.42575688,-27.29860665,2.568029521
3.880523796,0.612101034,0.000115794,-0.000563817,,,4.558571007,3.676111448,-2.941640875,-1.518166768,1.452854971
3.881974917,2.426486649,0.000234907,-0.002000615,,,4.559035502,3.003632964,-4.861669235,-12.98893475,1.607230967
3.882589771,3.191329074,0.000157025,-0.002582334,,,4.559962276,0.809723069,-19.20004689,-49.9882993,4.046107975
3.882589771,3.191329074,0.000157025,-0.002582334,,,4.56216164,2.84319459,-5.68897807,-15.68542408,1.738565823
3.888893741,3.44477743,9.94207E-05,-0.002689151,,,4.564809092,0.43194227,-22.72659445,-56.33741061,4.633704553
3.889662728,0.861548869,0.000149498,-0.000768958,,,4.565006812,3.586107227,-3.006014627,-3.028378178,1.432105028
3.889662728,0.861548869,0.000149498,-0.000768958,,,4.566805113,0.491461918,-22.14277972,-55.32515052,4.536897002
3.89048653,3.924785064,-4.03E-05,-0.002774369,,,4.569397285,1.029755485,-17.28614493,-46.21951378,3.764889373
3.893789631,2.16777212,0.00022461,-0.001719532,,,4.570454877,1.465037888,-13.84271438,-38.86265817,3.281100757
3.893789631,2.16777212,0.00022461,-0.001719532,,,4.571852358,2.019565076,-11.58417827,-29.53721952,2.809868399
3.894747987,1.624674439,0.000204315,-0.001305434,,,4.573766071,2.938945104,-5.171124326,-13.98790535,1.671091766
3.899503087,1.115746061,0.000176,-0.000962723,,,4.575601801,2.517121206,-7.690280678,-21.12385507,2.092874012
3.899503087,1.115746061,0.000176,-0.000962723,,,4.577436129,1.194459778,-15.92531677,-43.39273373,3.576388339
3.901576922,3.699140257,2.90081E-05,-0.002750105,,,4.579292551,3.219524468,-3.927621518,-9.188633965,1.502371166
3.901576922,3.699140257,2.90081E-05,-0.002750105,,,4.581036019,1.9820862,-10.30109662,-30.11213699,2.867034922
3.901576922,3.699140257,2.90081E-05,-0.002750105,,,4.585890938,2.976695145,-4.973010123,-13.26711715,1.654892651
3.901576922,3.699140257,2.90081E-05,-0.002750105,,,4.586613321,3.287029905,-3.688506835,-7.987091024,1.482365577
3.901576922,3.699140257,2.90081E-05,-0.002750105,,,4.594856121,2.734472914,-6.281391041,-17.31908794,1.874698736
3.901576922,3.699140257,2.90081E-05,-0.002750105,,,4.595095453,2.856987841,-5.584573598,-15.23818816,1.760875588
3.901576922,3.699140257,2.90081E-05,-0.002750105,,,4.597385497,3.67459818,-2.95350278,-1.210673605,1.469224965
3.908638146,1.371738955,0.000194778,-0.001142036,,,4.597714617,3.488861102,-3.155817978,-4.444546681,1.450246435
3.91305847,2.596712621,0.000234248,-0.002156131,,,4.598689918,1.784443747,-11.56305004,-33.32800797,3.031984022
3.91305847,2.596712621,0.000234248,-0.002156131,,,4.598860544,3.431102998,-3.277562411,-5.430411663,1.456589075
3.913793699,2.852664248,0.000213454,-0.002363679,,,4.598875913,2.113353321,-10.73006912,-27.80479036,2.685915489
3.9150923,4,-6.80E-05,-0.002764519,,,4.598960887,3.123723753,-4.295185699,-10.67973342,1.571057554
3.915791724,3.106444411,0.000175283,-0.002527606,,,4.602360815,1.326887224,-14.85608263,-41.02023587,3.457828276
3.916439665,2.339430522,0.000236303,-0.001905536,,,4.603873622,3.319018693,-3.580498824,-7.313611067,1.487386325
3.916439665,2.339430522,0.000236303,-0.001905536,,,4.606720666,2.611871347,-7.026739776,-19.32405955,2.015923001
3.919031957,3.356054312,0.000122239,-0.002647098,,,4.609341973,1.375330455,-14.47784411,-40.16360734,3.414946412
3.919031957,3.356054312,0.000122239,-0.002647098,,,4.610414077,0.230433415,-24.67836048,-59.49268117,5.048330404
3.926182692,3.774355192,5.28381E-06,-0.002752192,,,4.612193473,3.405672332,-3.33700741,-5.76440093,1.471994231
3.926182692,3.774355192,5.28381E-06,-0.002752192,,,4.612559098,1.476615277,-13.71602373,-38.43558626,3.317445403
3.927083333,0,0,0,,,4.613587511,1.857241895,-11.07186167,-32.01915813,2.99441542
3.929877433,2.08388606,0.000219111,-0.001615906,,,4.613638559,1.728105125,-11.9310807,-34.19057383,3.094639538
3.931715138,3.610417139,5.45475E-05,-0.002722485,,,4.61396582,2.473248439,-7.945589261,-21.63029786,2.187102815
3.931715138,3.610417139,5.45475E-05,-0.002722485,,,4.615053854,0.401569875,-22.93983649,-56.59353754,4.744302325
3.935128011,0.240710643,5.23917E-05,-0.000230808,,,4.61594087,2.652314269,-6.760448006,-18.57881371,1.981124774
3.935128011,0.240710643,5.23917E-05,-0.000230808,,,4.616260473,2.235746448,-9.705445415,-25.63706513,2.514972135
3.943499338,0.48539184,9.78778E-05,-0.000452236,,,4.618343942,0.517299295,-21.80977642,-54.62578106,4.55330483
3.943499338,0.48539184,9.78778E-05,-0.000452236,,,4.620003321,1.693146502,-12.16510394,-34.7428989,3.130875164
3.944538669,1.749105028,0.00020991,-0.001374511,,,4.623414365,0.6877208,-20.20842079,-51.72034556,4.292207243
3.944538669,1.749105028,0.00020991,-0.001374511,,,4.625136306,2.096246065,-10.83121226,-27.93686291,2.744610222
3.947523218,2.509656495,0.000240089,-0.002069575,,,4.627789934,2.748266165,-6.167642571,-16.87128136,1.894446032
3.947523218,2.509656495,0.000240089,-0.002069575,,,4.627859927,3.580533162,-3.018818311,-2.604906801,1.468284817
3.94767969,2.764003844,0.000225626,-0.002288811,,,4.628545021,1.620463819,-12.66394565,-35.91915695,3.202894762
3.94767969,2.764003844,0.000225626,-0.002288811,,,4.632118522,3.065382751,-4.526294813,-11.44120533,1.638692062
3.948993677,3.021559748,0.000192266,-0.002468597,,,4.637707122,2.590026508,-7.132738892,-19.49753198,2.071970101
3.948993677,3.021559748,0.000192266,-0.002468597,,,4.63905233,2.297292918,-9.19466107,-24.45693375,2.449536274
3.950788461,3.849570128,-1.99E-05,-0.002749597,,,4.642392363,1.130303842,-16.36741994,-44.12633723,3.721436582
3.950788461,3.849570128,-1.99E-05,-0.002749597,,,4.643941143,2.392695936,-8.478793191,-22.80944728,2.322380893
3.952359779,3.267788429,0.000144166,-0.002599393,,,4.644953528,2.330752733,-8.93352912,-23.85351889,2.408275617
3.952359779,3.267788429,0.000144166,-0.002599393,,,4.648106036,1.896532909,-10.7938897,-31.15727305,3.007174982
3.952638271,0.734839675,0.000136301,-0.000663809,,,4.65141637,1.2885764,-15.10015082,-41.39733627,3.552325836
3.952638271,0.734839675,0.000136301,-0.000663809,,,4.654741057,3.042690817,-4.612935817,-11.66924613,1.674680078
3.955121173,2.251658181,0.000235468,-0.001805106,,,4.655036925,2.668688373,-6.617155325,-18.04672691,2.002509108
3.955121173,2.251658181,0.000235468,-0.001805106,,,4.65716651,2.868119408,-5.470991126,-14.63337016,1.812197488
3.955251953,1.874552514,0.000211278,-0.001443767,,,4.658278358,2.016481268,-11.46041021,-29.08044919,2.920334859
3.961258267,0.977049381,0.000166021,-0.000855215,,,4.658735236,2.930631038,-5.145983772,-13.55564866,1.761548124
3.961258267,0.977049381,0.000166021,-0.000855215,,,4.65932431,1.389074088,-14.32268367,-39.65281735,3.455756649
3.961853354,3.521694021,7.98366E-05,-0.002689751,,,4.660255204,3.369573831,-3.417928387,-6.012657284,1.516745588
3.961853354,3.521694021,7.98366E-05,-0.002689751,,,4.666014509,1.984909737,-10.22785259,-29.5646301,2.968710423
3.965965236,2,0.000210893,-0.001508924,,,4.666725698,0.42942163,-22.5772856,-55.85668076,4.75541558
3.965965236,2,0.000210893,-0.001508924,,,4.668019765,0.485631402,-22.03116192,-54.90120411,4.661329215
3.972318989,1.24323406,0.000190333,-0.00104915,,,4.668605555,3.643197982,-2.972062255,-1.143934506,1.482310328
3.972318989,1.24323406,0.000190333,-0.00104915,,,4.668949006,2.962430993,-4.980159545,-12.94121866,1.745923206
3.975394231,3.924785064,-4.66E-05,-0.00274261,,,4.669552819,2.514091599,-7.59721194,-20.58394005,2.193060886
3.975394231,3.924785064,-4.66E-05,-0.00274261,,,4.670313297,1.911877023,-10.68084137,-30.76732058,3.022599661
3.977315431,2.676919769,0.000235276,-0.002211827,,,4.672694207,3.190544047,-3.989935261,-9.004344255,1.600608489
3.977315431,2.676919769,0.000235276,-0.002211827,,,4.6736394,1.527405333,-13.2873445,-37.23259372,3.33722408
3.981454048,1.499226953,0.000205489,-0.001219351,,,4.673865389,2.214498514,-9.785925972,-25.64337733,2.609856763
3.981454048,1.499226953,0.000205489,-0.001219351,,,4.675523067,2.608187402,-6.973339412,-18.94274807,2.08850905
3.981987966,2.422600368,0.00024359,-0.001979004,,,4.675560452,0.114561147,-25.76661343,-61.10208628,5.357516641
3.981987966,2.422600368,0.00024359,-0.001979004,,,4.681466942,2.077308454,-10.89655917,-27.91520541,2.841103378
3.982879668,2.932899345,0.000208376,-0.002402712,,,4.681757364,0.292508357,-23.90959758,-58.08474864,5.018083034
3.985561732,3.182903766,0.000164277,-0.002548721,,,4.682441928,2.78406896,-5.90888418,-15.89590299,1.912123933
3.989945477,3.671566141,3.51882E-05,-0.002714012,,,4.683632666,2.646406345,-6.724000481,-18.23750881,2.053879203
3.989945477,3.671566141,3.51882E-05,-0.002714012,,,4.68980465,0.619158174,-20.73734804,-52.52792421,4.468945238
3.991208975,2.16777212,0.000232004,-0.001705703,,,4.69316112,0.024423111,-26.70039011,-62.51746151,5.56939723
3.99199157,3.432970903,0.000104571,-0.002652042,,,4.693732568,0.796494909,-19.12865483,-49.5025185,4.208619685
3.99199157,3.432970903,0.000104571,-0.002652042,,,4.699272203,3.544827024,-3.056400112,-2.626677907,1.497340822
3.998814006,0.120355322,2.77747E-05,-0.000116524,,,4.700125782,2.197391259,-9.88078384,-25.76910902,2.664388207
4,4,-7.48E-05,-0.002732145,,,4.70140829,2.529390008,-7.456016805,-20.11558941,2.205248942
4,4,-7.48E-05,-0.002732145,,,4.701735078,1.310645579,-14.87590166,-40.74020415,3.58245124
4.000437595,3.737227741,1.40422E-05,-0.00272005,,,4.70266186,1.362700036,-14.4778044,-39.8530038,3.529199793
4.000437595,3.737227741,1.40422E-05,-0.00272005,,,4.703167577,1.016527324,-17.22895029,-45.71906968,3.924070494
4.006858684,0.361065965,7.74365E-05,-0.000340028,,,4.7050761,3.017283014,-4.693243275,-11.74354205,1.736014058
4.006858684,0.361065965,7.74365E-05,-0.000340028,,,4.707431054,3.249542896,-3.762498992,-7.722523977,1.596893577
4.011780179,2.589863642,0.00024319,-0.002129658,,,4.708263463,1.78564811,-11.47040318,-32.667888,3.157736208
4.015613813,0.608130481,0.00012035,-0.000555779,,,4.708326763,2.409894616,-8.269320703,-22.10657502,2.364034924
4.015613813,0.608130481,0.00012035,-0.000555779,,,4.713895007,1.180965751,-15.87703895,-42.86952505,3.737911479
4.016452715,2.335544241,0.000244586,-0.001884519,,,4.71603589,0.884314952,-18.33192225,-47.89072223,4.109984016
4.016452715,2.335544241,0.000244586,-0.001884519,,,4.717213133,2.736169624,-6.149296774,-16.47688418,1.990481511
4.016452715,2.335544241,0.000244586,-0.001884519,,,4.717754798,1.929216315,-10.53937455,-30.18844101,3.065582356
4.016452715,2.335544241,0.000244586,-0.001884519,,,4.718047325,0.931223317,-17.92773873,-47.08359449,4.049325661
4.016452715,2.335544241,0.000244586,-0.001884519,,,4.724334909,1.477843845,-13.59993318,-37.77741326,3.438537279
4.016452715,2.335544241,0.000244586,-0.001884519,,,4.724691355,3.281531684,-3.649939893,-7.032627356,1.592886936
4.016765659,2.844238941,0.00022267,-0.002332374,,,4.725284795,0.315970174,-23.59276946,-57.46112224,5.025082058
4.016765659,2.844238941,0.00022267,-0.002332374,,,4.727084734,2.291296632,-9.112072685,-24.00349572,2.549002765
4.018763684,3.098019104,0.000183172,-0.002493805,,,4.727494695,3.151816727,-4.106948967,-9.259443059,1.66413218
4.020083693,3.582843023,6.1932E-05,-0.002684679,,,4.730228206,3.50349653,-3.110115384,-3.093511175,1.514793366
4.022129786,3.344247785,0.000128462,-0.002609487,,,4.731650668,0.592481711,-20.91836557,-52.75367654,4.555732795
4.022129786,3.344247785,0.000128462,-0.002609487,,,4.734090105,2.331017109,-8.805316432,-23.28228287,2.498201216
4.022129786,3.344247785,0.000128462,-0.002609487,,,4.738118565,1.621668182,-12.56050048,-35.26106726,3.323303592
4.022129786,3.344247785,0.000128462,-0.002609487,,,4.739439734,2.155501683,-10.15308627,-26.23056261,2.77293233
4.022129786,3.344247785,0.000128462,-0.002609487,,,4.740182234,2.425193026,-8.118855392,-21.63710554,2.374064982
4.022129786,3.344247785,0.000128462,-0.002609487,,,4.74130167,2.717399644,-6.2342998,-16.63198884,2.030642654
4.02423381,0.850340187,0.000154619,-0.000753469,,,4.743561136,3.478065864,-3.149556085,-3.430478938,1.52563545
4.025043365,3.812442677,-1.19E-05,-0.00271795,,,4.744827846,2.8562612,-5.456647686,-14.22395621,1.899558476
4.027296778,2.08388606,0.000225846,-0.001602921,,,4.750117231,3.129124793,-4.182182262,-9.479435923,1.693926343
4.03124473,1.623657542,0.000212865,-0.001291714,,,4.753656861,3.340593411,-3.461983135,-5.768926101,1.581712377
4.03124473,1.623657542,0.000212865,-0.001291714,,,4.755375095,1.729663003,-11.80700326,-33.32973136,3.252987849
4.034074169,1.10453738,0.000182479,-0.000945821,,,4.75628258,1.199556431,-15.68154674,-42.31166871,3.760440509
4.041958014,1.749105028,0.000216018,-0.001364196,,,4.758258706,2.270988439,-9.219292371,-24.14686567,2.609974329
4.04513489,1.370722058,0.000202968,-0.001130282,,,4.76084168,1.455626819,-13.72763609,-37.93920496,3.498155102
4.04513489,1.370722058,0.000202968,-0.001130282,,,4.760979392,3.597011063,-2.987224488,-1.149815616,1.491949935
4.046244928,2.502807515,0.000248797,-0.00204348,,,4.761628973,2.606459705,-6.886412981,-18.39295315,2.16901224
4.0464014,2.757154865,0.000234458,-0.00225996,,,4.761739857,1.69470438,-12.03804885,-33.88273639,3.287763269
4.049649134,3.887657612,-3.92E-05,-0.002711323,,,4.76181279,3.425539753,-3.248211887,-4.205651957,1.549711601
4.050221909,3.494119905,8.82125E-05,-0.002650434,,,4.763389831,2.545008477,-7.278079664,-19.43350525,2.243001803
4.051965637,3.013134441,0.000200648,-0.002434749,,,4.766026076,0.142624241,-25.28492189,-60.161236,5.412492069
4.051965637,3.013134441,0.000200648,-0.002434749,,,4.768460354,2.638654654,-6.678411154,-17.79384764,2.138425823
4.052540517,2.251658181,0.000243248,-0.001789383,,,4.770572107,1.803924286,-11.30349342,-31.98016857,3.212610269
4.052540517,2.251658181,0.000243248,-0.001789383,,,4.771906049,2.349178003,-8.618205703,-22.72415911,2.508314631
4.052671297,1.874552514,0.000217331,-0.001432589,,,4.771928803,2.077308454,-10.73935025,-27.34865255,2.940135307
4.055331739,3.259363122,0.000150465,-0.002562888,,,4.772127699,2.915292104,-5.129391645,-13.01010691,1.869349434
4.055331739,3.259363122,0.000150465,-0.002562888,,,4.77529338,2.016481268,-11.24803098,-28.35674551,3.053707417
4.0625,0,0,0,,,4.77880942,3.084103309,-4.347200657,-10.04034062,1.743170817
4.06338458,2,0.000216828,-0.001496864,,,4.780763272,0.759860617,-19.32709775,-49.64285107,4.351054657
4.06338458,2,0.000216828,-0.001496864,,,4.782341469,2.947092059,-4.964367757,-12.38567697,1.850155804
4.070544678,0.240710643,5.47675E-05,-0.000228935,,,4.783029531,1.984909737,-10.15344478,-28.84130722,3.102363858
4.074254904,3.962872548,-6.69E-05,-0.002700504,,,4.792405793,2.197391259,-9.733732748,-25.17646697,2.758186964
4.076037141,2.67007079,0.00024412,-0.002183385,,,4.792509496,1.033792548,-16.97434081,-44.91953854,3.993299145
4.076037141,2.67007079,0.00024412,-0.002183385,,,4.792737436,3.005424806,-4.681591052,-11.29839037,1.810556892
4.078314032,3.643992026,4.18074E-05,-0.002674479,,,4.792779368,1.8192684,-11.18735917,-31.58265682,3.225166399
4.078314032,3.643992026,4.18074E-05,-0.002674479,,,4.793365155,2.464455974,-7.777451552,-20.60868393,2.370458112
4.078589356,0.481421287,0.000101482,-0.000444956,,,4.794908722,2.289893596,-9.021726806,-23.58317222,2.61647457
4.078589356,0.481421287,0.000101482,-0.000444956,,,4.795433693,2.696024878,-6.303183062,-16.61897462,2.097856421
4.078589356,0.481421287,0.000101482,-0.000444956,,,4.796118426,3.218487671,-3.820603028,-7.563953477,1.666225973
4.078589356,0.481421287,0.000101482,-0.000444956,,,4.796624893,0.429518905,-22.34957056,-55.15842994,4.898465013
4.078589356,0.481421287,0.000101482,-0.000444956,,,4.797714991,0.476869004,-21.89480705,-54.3505763,4.81713008
4.078589356,0.481421287,0.000101482,-0.000444956,,,4.797911115,2.829552366,-5.549688012,-14.30066929,1.965562969
4.080360125,3.405396787,0.000113729,-0.0026114,,,4.801550693,2.328362682,-8.727342368,-22.88179549,2.565646611
4.080360125,3.405396787,0.000113729,-0.0026114,,,4.807740567,1.599775556,-12.65335359,-35.21133026,3.415388529
4.080709676,2.415751389,0.000251928,-0.001953389,,,4.808216659,1.929216315,-10.47926718,-29.62348129,3.165384507
4.080709676,2.415751389,0.000251928,-0.001953389,,,4.809553506,0.166086058,-24.95137408,-59.5346867,5.416172227
4.085851629,2.924474037,0.000217126,-0.002368977,,,4.81243075,1.85762253,-10.92673561,-30.80949817,3.218571214
4.085851629,2.924474037,0.000217126,-0.002368977,,,4.81458759,0.340485433,-23.18335568,-56.56605895,5.079611987
4.087209352,0.723630993,0.000140523,-0.000648832,,,4.8166083,3.256461878,-3.681462446,-6.731920754,1.65316859
4.088533692,3.174478459,0.000171318,-0.002512093,,,4.819700899,0.562589885,-21.0531956,-52.77470127,4.695981981
4.088533692,3.174478459,0.000171318,-0.002512093,,,4.821999652,2.810782386,-5.627532612,-14.44840098,2.001109999
4.08862832,2.16777212,0.000239249,-0.001690851,,,4.82260929,0.733184154,-19.50178403,-49.85982194,4.43235787
4.08862832,2.16777212,0.000239249,-0.001690851,,,4.822973862,3.191549851,-3.899063497,-7.820144088,1.696060799
4.08880615,3.709653625,1.97245E-05,-0.002680411,,,4.823279106,2.213316622,-9.559957649,-24.70090544,2.762095677
4.095829349,0.9658407,0.00017172,-0.00083883,,,4.824526219,0.028992917,-26.3621397,-61.75534694,5.729232012
4.095829349,0.9658407,0.00017172,-0.00083883,,,4.82496788,1.303024224,-14.80415098,-40.14951713,3.716624086
4.099298268,3.775315225,-3.29E-06,-0.002683139,,,4.825748585,1.346873961,-14.47126736,-39.39904111,3.671885379
4.099298268,3.775315225,-3.29E-06,-0.002683139,,,4.827005312,3.559788273,-2.997593854,-1.229218927,1.498151863
4.10689007,1.232025378,0.000197255,-0.001031155,,,4.828290098,3.338622438,-3.430076848,-5.184429182,1.610201941
4.108452248,3.555268908,6.96369E-05,-0.002643707,,,4.8309807,2.420091233,-8.032104346,-21.11117289,2.461985542
4.110501889,2.583014663,0.000251904,-0.002101639,,,4.834431339,2.096246065,-10.47242324,-26.62132832,2.970662484
4.112179965,2.332132541,0.000252317,-0.001863569,,,4.83489707,1.052383227,-16.76970803,-44.35647886,4.01203043
4.112179965,2.332132541,0.000252317,-0.001863569,,,4.838840028,3.44850298,-3.165464155,-3.133985222,1.552966684
4.115487369,2.837389962,0.000231126,-0.002301183,,,4.83954043,3.117028252,-4.169857681,-8.992795166,1.754986125
4.117950791,1.498210056,0.000213778,-0.001205978,,,4.841219163,1.217506882,-15.44570114,-41.50767199,3.825092115
4.117950791,1.498210056,0.000213778,-0.001205978,,,4.842832964,3.529599278,-3.027576464,-1.635003719,1.510735332
4.117950791,1.498210056,0.000213778,-0.001205978,,,4.844247338,1.577558529,-12.77709861,-35.36379838,3.471724614
4.117950791,1.498210056,0.000213778,-0.001205978,,,4.844445864,0.867052755,-18.30483573,-47.45651091,4.262418219
4.117950791,1.498210056,0.000213778,-0.001205978,,,4.844881203,1.423192235,-13.88459688,-37.9849741,3.61468879
4.117950791,1.498210056,0.000213778,-0.001205978,,,4.846833658,0.922738139,-17.82901621,-46.49438264,4.189441626
4.117950791,1.498210056,0.000213778,-0.001205978,,,4.852399338,2.540007202,-7.201354457,-18.90043614,2.322958658
4.121735645,3.089593796,0.000190808,-0.002457202,,,4.855633289,2.900816091,-5.128284739,-12.63679361,1.939355916
4.121735645,3.089593796,0.000190808,-0.002457202,,,4.855952815,2.402556781,-8.1195454,-21.23926683,2.507094388
4.123904038,3.850530161,-3.15E-05,-0.002676433,,,4.85755672,3.015255342,-4.585692732,-10.62920709,1.842295347
4.124716122,2.08388606,0.000232424,-0.00158902,,,4.857819611,2.768217118,-5.824813168,-14.92055778,2.0685956
4.124716122,2.08388606,0.000232424,-0.00158902,,,4.858230364,3.203638229,-3.832868592,-7.321277223,1.702991418
4.128664075,1.623657542,0.000218845,-0.001281633,,,4.859095652,1.733667611,-11.69927267,-32.61742744,3.358103781
4.128664075,1.623657542,0.000218845,-0.001281633,,,4.859467992,3.261741103,-3.638229123,-6.285082869,1.665177838
4.133472832,3.343909258,0.000131636,-0.002569645,,,4.862724415,2.019565076,-11.05747389,-27.7382703,3.139925227
4.133472832,3.343909258,0.000131636,-0.002569645,,,4.864394331,3.343069562,-3.396999973,-4.798986239,1.615576318
4.134230672,0.120355322,2.90169E-05,-0.000115563,,,4.865304653,2.112171429,-10.28840598,-26.14510938,2.972482142
4.138590464,3.46654579,9.67994E-05,-0.002608228,,,4.866651325,1.692167883,-11.970867,-33.2749709,3.398313211
4.138590464,3.46654579,9.67994E-05,-0.002608228,,,4.867758157,2.938566132,-4.932696552,-11.88721841,1.912929911
4.139377358,1.749105028,0.000221991,-0.001353207,,,4.869239873,3.127211284,-4.108101769,-8.576440545,1.761462867
4.139377358,1.749105028,0.000221991,-0.001353207,,,4.871908076,1.9820862,-10.1151077,-28.31422894,3.197888594
4.14227535,0.361065965,8.0796E-05,-0.000337098,,,4.87423462,3.235855274,-3.712300017,-6.620201955,1.686701578
4.14227535,0.361065965,8.0796E-05,-0.000337098,,,4.87494426,3.452950104,-3.13669031,-2.735861789,1.550298384
4.144966638,2.495958536,0.000257248,-0.002015989,,,4.876198063,0.056844672,-25.94967943,-61.0098372,5.730533829
4.144966638,2.495958536,0.000257248,-0.002015989,,,4.876765334,2.599990412,-6.792228399,-17.69135635,2.268239672
4.14512311,2.750305886,0.000243032,-0.002229247,,,4.87960833,1.911877023,-10.53965202,-29.45659639,3.250715647
4.148267768,2.248246481,0.000250467,-0.001769168,,,4.879733965,0.224613165,-24.21054571,-58.16499469,5.37683716
4.148509807,3.925745096,-6.06E-05,-0.002664921,,,4.880417427,2.290390995,-8.888075665,-22.99478763,2.691951386
4.150090641,1.874552514,0.000223236,-0.001420669,,,4.883596715,2.632185362,-6.586751913,-17.08518787,2.235180766
4.150090641,1.874552514,0.000223236,-0.001420669,,,4.88422903,2.878534062,-5.21382856,-12.80622756,1.977199418
4.150184895,0.596921799,0.000123573,-0.000541389,,,4.884256754,2.230202564,-9.332204037,-23.99992502,2.790188574
4.150184895,0.596921799,0.000123573,-0.000541389,,,4.8844432,2.691023603,-6.235710046,-16.0606195,2.168970008
4.154937598,3.004709133,0.000208741,-0.00239831,,,4.885059378,1.8192684,-11.12061354,-30.99564382,3.32014829
4.154937598,3.004709133,0.000208741,-0.00239831,,,4.885458111,1.75188276,-11.55858421,-32.13932299,3.37039557
4.154937598,3.004709133,0.000208741,-0.00239831,,,4.885692656,3.534878503,-2.995455452,-1.149792683,1.498036165
4.154937598,3.004709133,0.000208741,-0.00239831,,,4.886012504,2.32279666,-8.642909594,-22.39992993,2.647427845
4.154937598,3.004709133,0.000208741,-0.00239831,,,4.887256163,3.025438374,-4.516355285,-10.21760986,1.849318517
4.154937598,3.004709133,0.000208741,-0.00239831,,,4.890019103,0.671363994,-19.95012324,-50.52487948,4.592473974
4.158804892,0.839131505,0.0001595,-0.000737613,,,4.894121686,0.835384861,-18.50697319,-47.70585545,4.354190012
4.160803925,2,0.000222599,-0.00148399,,,4.897152365,0.944807319,-17.57752062,-45.82183332,4.208376641
4.160803925,2,0.000222599,-0.00148399,,,4.89937443,2.038470233,-10.82946579,-27.1726806,3.140185915
4.160803925,2,0.000222599,-0.00148399,,,4.901994377,1.103730364,-16.27396042,-43.08160339,4.014046233
4.160803925,2,0.000222599,-0.00148399,,,4.90301466,2.95065451,-4.843783386,-11.40222969,1.921465269
4.160803925,2,0.000222599,-0.00148399,,,4.907343117,2.517818923,-7.275231951,-18.88960584,2.392347973
4.160803925,2,0.000222599,-0.00148399,,,4.909360369,1.517455084,-13.14312451,-35.97956071,3.588769491
4.166674785,3.259024595,0.000154716,-0.002523458,,,4.909988874,1.665793831,-12.1139726,-33.44745795,3.461986712
4.166682586,3.61641791,4.86732E-05,-0.002631564,,,4.910501505,2.382207367,-8.184274635,-21.20627547,2.579701573
4.166682586,3.61641791,4.86732E-05,-0.002631564,,,4.912798119,2.805680593,-5.564837821,-13.85652371,2.065247333
4.16864525,1.093328698,0.000188712,-0.000928363,,,4.916261821,1.9820862,-10.08763969,-28.01944206,3.241965033
4.174758851,2.663221811,0.000252683,-0.002153246,,,4.916745824,2.152009335,-9.881194953,-25.11578759,2.949819094
4.174758851,2.663221811,0.000252683,-0.002153246,,,4.916971126,1.911877023,-10.51492231,-29.21026494,3.287579345
4.176436927,2.412339688,0.000259794,-0.001930475,,,4.918120184,3.131868715,-4.052925676,-8.096150751,1.7764961
4.177174705,3.68207951,2.56435E-05,-0.002637124,,,4.920888552,2.896276022,-5.090461709,-12.21331683,1.980717648
4.179705972,1.359513376,0.000210218,-0.001111072,,,4.922422174,1.8192684,-11.09379105,-30.75179359,3.35664878
4.179705972,1.359513376,0.000210218,-0.001111072,,,4.923010482,3.361453474,-3.310781722,-3.96218296,1.608394803
4.18435557,2.16436042,0.000245829,-0.001671455,,,4.923553796,3.188590895,-3.838997216,-7.04657579,1.7342945
4.184573338,2.917625058,0.000225026,-0.002335194,,,4.926671844,0.027851755,-26.14155024,-61.22039819,5.857395237
4.184573338,2.917625058,0.000225026,-0.002335194,,,4.927549314,2.930646429,-4.916664114,-11.55958099,1.951866322
4.187666823,3.747741109,1.55132E-06,-0.002639373,,,4.929222544,2.018905157,-10.93487214,-27.30485333,3.206388996
4.191703171,3.40505826,0.000115451,-0.002567872,,,4.929811855,1.75188276,-11.52493283,-31.85186194,3.413388583
4.196820802,3.527694792,7.74947E-05,-0.002599696,,,4.931166411,3.446399817,-3.112299052,-2.352307783,1.547089526
4.196820802,3.527694792,7.74947E-05,-0.002599696,,,4.9320482,3.053190212,-4.359361714,-9.37084809,1.845500701
4.197916667,0,0,0,,,4.932315232,2.500284472,-7.356683383,-19.0114637,2.432996177
4.198158941,3.813402709,-2.35E-05,-0.002638276,,,4.935530127,3.307501664,-3.447818869,-4.823010342,1.647513813
4.198158941,3.813402709,-2.35E-05,-0.002638276,,,4.937035493,3.215729953,-3.734493169,-6.450589357,1.716505377
4.199876738,3.174139932,0.000176504,-0.002473238,,,4.943679441,2.8206261,-5.454111376,-13.35826789,2.067147261
4.205961345,0.240710643,5.71065E-05,-0.000226932,,,4.94493696,0.861016525,-18.21751785,-46.96651988,4.365979867
4.205961345,0.240710643,5.71065E-05,-0.000226932,,,4.945579845,0.914753598,-17.7642067,-46.04478443,4.293319423
4.207369894,1.55147719,0.000221241,-0.001229791,,,4.947236498,2.705828559,-6.080220275,-15.33333144,2.192209241
4.207369894,1.55147719,0.000221241,-0.001229791,,,4.947349325,0.161433659,-24.70933185,-58.85462606,5.583551046
4.207907216,2.328720841,0.000259793,-0.001841486,,,4.947969269,3.285695908,-3.502557626,-5.106528116,1.664596637
4.207907216,2.328720841,0.000259793,-0.001841486,,,4.949668483,0.335924698,-22.97197307,-55.88623612,5.231584087
4.209223599,2.576165684,0.000260311,-0.002072086,,,4.954399909,3.504035845,-2.991352771,-1.086343724,1.496440016
4.209223599,2.576165684,0.000260311,-0.002072086,,,4.954781792,0.55802915,-20.87115675,-52.07836354,4.837607123
4.213098502,0.475954892,0.000104659,-0.000436189,,,4.955585025,2.109481004,-10.14786352,-25.57604913,3.059543829
4.213098502,0.475954892,0.000104659,-0.000436189,,,4.955778035,3.00655816,-4.540667554,-10.00033787,1.894971544
4.214209079,2.830540982,0.000239254,-0.002267962,,,4.957830489,1.686200072,-11.93820714,-32.78916654,3.490756907
4.214209079,2.830540982,0.000239254,-0.002267962,,,4.960405109,0.728531755,-19.33655004,-49.13641718,4.57179275
4.218083177,1.676924676,0.000225505,-0.001302884,,,4.961725209,2.592106249,-6.737627343,-17.20237462,2.335154087
4.220443373,2.08047436,0.000238233,-0.001570521,,,4.962574277,1.730789273,-11.63847904,-31.99657742,3.4602211
4.220443373,2.08047436,0.000238233,-0.001570521,,,4.965579076,1.039787763,-16.71064685,-43.78623057,4.150273588
4.221780434,0.712422311,0.00014449,-0.000633582,,,4.969326403,1.20515958,-15.39905979,-40.93538377,3.959094309
4.221780434,0.712422311,0.00014449,-0.000633582,,,4.969535688,2.457758596,-7.586231478,-19.47546605,2.516050546
4.222764711,3.888617645,-5.44E-05,-0.002625907,,,4.969834808,2.630325192,-6.495904414,-16.47674451,2.293396994
4.22879646,1.802372162,0.000227801,-0.001371862,,,4.971355918,0.423619463,-22.0918545,-54.27064625,5.08894221
4.230400431,0.954632018,0.000177157,-0.000822,,,4.972446017,0.470969563,-21.64515328,-53.45821266,5.004712243
4.230400431,0.954632018,0.000177157,-0.000822,,,4.972758375,2.227565147,-9.206943915,-23.4276019,2.867967768
4.233078691,3.089255269,0.000196795,-0.002419072,,,4.972988443,1.410844933,-13.85047608,-37.39556265,3.747932859
4.233078691,3.089255269,0.000196795,-0.002419072,,,4.974929345,1.564963064,-12.75106361,-34.74863101,3.607604524
4.239509744,1.927819648,0.000228149,-0.001436694,,,4.976445587,2.989703712,-4.597161109,-10.13003529,1.917807967
4.239509744,1.927819648,0.000228149,-0.001436694,,,4.97811782,2.720774066,-5.960744206,-14.83653891,2.192712675
4.240693888,2.492546836,0.000265091,-0.001990933,,,4.980728539,2.092999736,-10.23266096,-25.68362812,3.111539942
4.241461152,1.220816696,0.000203902,-0.001012507,,,4.981358592,3.259169517,-3.557581874,-5.293707521,1.687007703
4.241461152,1.220816696,0.000203902,-0.001012507,,,4.983473804,1.929216315,-10.36492928,-28.46668707,3.338704469
4.24384482,2.743456907,0.000251258,-0.002196685,,,4.985292002,3.113360489,-4.069185258,-7.866450898,1.809849277
4.24384482,2.743456907,0.000251258,-0.002196685,,,4.987687896,1.85762253,-10.80482267,-29.66184179,3.390552022
4.243995018,2.24483478,0.000257419,-0.001747943,,,4.989867529,0.137010548,-24.86544104,-59.02691378,5.683381419
4.244815878,3.343570731,0.000133985,-0.002525291,,,4.990678286,1.287052633,-14.75062867,-39.40024067,3.88932159
4.244815878,3.343570731,0.000133985,-0.002525291,,,4.991369853,2.571290928,-6.828807031,-17.34172649,2.379340105
4.24993351,3.466207263,9.68454E-05,-0.002560689,,,4.99145899,1.33090237,-14.42114212,-38.64495212,3.84435149
4.252081583,1.459208438,0.000219901,-0.00116813,,,4.994896822,2.28697942,-8.733586039,-22.24479259,2.787876396
4.252081583,1.459208438,0.000219901,-0.00116813,,,4.999003125,2.379569951,-8.073090609,-20.61364823,2.648109046
4.252580114,2.994267559,0.00021648,-0.002359961,,,5.000491899,2.319385085,-8.492266344,-21.64428596,2.740743351
4.252580114,2.994267559,0.00021648,-0.002359961,,,5.000900653,3.411532696,-3.130406193,-2.35876756,1.557523472
4.254280909,2,0.000227958,-0.001470866,,,5.001217966,1.984909737,-10.01829227,-27.39233038,3.319387268
4.254280909,2,0.000227958,-0.001470866,,,5.002338065,2.898060032,-5.002271319,-11.53664736,2.015603338
4.255051141,3.588843795,5.56062E-05,-0.00258548,,,5.002674197,2.838321801,-5.301207967,-12.58511404,2.076972619
4.255051141,3.588843795,5.56062E-05,-0.00258548,,,5.003210981,0.750123407,-19.08428073,-48.51027522,4.578492775
4.255051141,3.588843795,5.56062E-05,-0.00258548,,,5.006373513,1.014471049,-16.86441002,-43.96732385,4.218286388
4.255051141,3.588843795,5.56062E-05,-0.00258548,,,5.006494331,2.648067152,-6.346330769,-15.88811174,2.292709637
4.255051141,3.588843795,5.56062E-05,-0.00258548,,,5.007948971,2.927013043,-4.857126789,-10.98083124,1.988832179
4.265543259,3.654505394,3.16066E-05,-0.002590439,,,5.010442478,3.164649971,-3.85369969,-6.738424921,1.769090171
4.265543259,3.654505394,3.16066E-05,-0.002590439,,,5.010967803,1.8192684,-11.03041967,-30.16012771,3.438352637
4.269647339,0.120355322,3.02375E-05,-0.000114539,,,5.012135846,2.015925363,-10.79552527,-26.78548948,3.287602127
4.269647339,0.120355322,3.02375E-05,-0.000114539,,,5.015230259,1.582152914,-12.59718077,-34.19062095,3.628750966
4.272164177,2.408927988,0.000267355,-0.001906308,,,5.022595604,2.497594047,-7.253013816,-18.38919585,2.495098257
4.273480561,2.656372831,0.000260881,-0.002121432,,,5.023924175,3.191789029,-3.744952056,-6.135976718,1.746002096
4.273480561,2.656372831,0.000260881,-0.002121432,,,5.024650426,3.084390146,-4.148959979,-8.051616697,1.843330932
4.273480561,2.656372831,0.000260881,-0.002121432,,,5.028038874,2.207214623,-9.265611999,-23.38270408,2.944549688
4.273480561,2.656372831,0.000260881,-0.002121432,,,5.028055828,2.589127498,-6.672559006,-16.75200718,2.377430129
4.273480561,2.656372831,0.000260881,-0.002121432,,,5.028993196,2.974131289,-4.61750015,-9.975418343,1.949018038
4.273480561,2.656372831,0.000260881,-0.002121432,,,5.029297786,2.761128287,-5.680062086,-13.73044165,2.17218843
4.276035378,3.720166994,6.35984E-06,-0.002591942,,,5.034686153,2.074700881,-10.27623258,-25.61800314,3.190971876
4.276035378,3.720166994,6.35984E-06,-0.002591942,,,5.035070706,2.627684779,-6.431812208,-16.02415962,2.332583885
4.276784497,0.35559957,8.29455E-05,-0.000329145,,,5.036283307,3.372280581,-3.191498459,-2.7564227,1.582260901
4.278017831,3.258686068,0.000158145,-0.002479836,,,5.037811638,0.305418334,-23.09464129,-55.89356457,5.380068039
4.280082821,2.16094872,0.000252134,-0.001651166,,,5.038566277,1.801499626,-11.12355693,-30.27649944,3.475211924
4.280082821,2.16094872,0.000252134,-0.001651166,,,5.044177512,0.581929871,-20.50483616,-51.13853748,4.880823036
4.282215854,2.907183484,0.000233009,-0.002297315,,,5.044603158,3.45893422,-2.990654178,-1.086289124,1.496214507
4.284694041,0.591455404,0.000127509,-0.000531602,,,5.045317978,3.067535699,-4.198081806,-8.177854207,1.862439342
4.286527496,3.785828593,-2.01E-05,-0.002589889,,,5.04853041,3.240661291,-3.558149891,-5.040704777,1.70113919
4.286527496,3.785828593,-2.01E-05,-0.002589889,,,5.048722449,3.350474824,-3.235626393,-3.042784054,1.599029506
4.293375973,0.827922824,0.000164104,-0.000721409,,,5.052674992,1.170989375,-15.56937267,-40.99337163,4.070574609
4.293375973,0.827922824,0.000164104,-0.000721409,,,5.053182387,2.190733355,-9.345398475,-23.48528239,2.991582851
4.296788996,1.604744324,0.000228256,-0.001251707,,,5.053499209,2.512619252,-7.114772914,-17.89304807,2.492225851
4.296788996,1.604744324,0.000228256,-0.001251707,,,5.057234092,1.427059763,-13.6516535,-36.57168122,3.806067099
4.297019614,3.851490193,-4.77E-05,-0.00258413,,,5.057848106,0.023461817,-25.87774688,-60.55715061,6.020141136
4.297019614,3.851490193,-4.77E-05,-0.00258413,,,5.059248763,3.309248739,-3.338858471,-3.700500154,1.63540183
4.297019614,3.851490193,-4.77E-05,-0.00258413,,,5.060712583,2.396454782,-7.865819783,-19.86262628,2.662507504
4.303046217,3.404719733,0.000116152,-0.002519543,,,5.063935127,2.719463008,-5.869148279,-14.18850003,2.234867689
4.303216332,1.082120016,0.000194653,-0.000910369,,,5.07027486,1.929216315,-10.30844553,-27.86527584,3.413871182
4.303216332,1.082120016,0.000194653,-0.000910369,,,5.072583789,0.859273453,-18.05458022,-46.21404074,4.481486703
4.303634466,2.32530914,0.000266958,-0.001818279,,,5.073125344,0.904540595,-17.67720192,-45.43424234,4.419648368
4.303634466,2.32530914,0.000266958,-0.001818279,,,5.074215362,3.144126676,-3.8704051,-6.558019791,1.791299781
4.30495085,2.572753984,0.000267965,-0.002044701,,,5.079173513,0.110052018,-24.93878583,-58.96955967,5.839883032
4.30495085,2.572753984,0.000267965,-0.002044701,,,5.079477801,2.281413217,-8.636289055,-21.72171064,2.855029861
4.307502279,1.73019181,0.000231662,-0.001322167,,,5.079593579,1.677942517,-11.89597171,-32.1161535,3.604130589
4.308163848,3.527356265,7.55968E-05,-0.002547795,,,5.080329843,0.280995223,-23.24495317,-56.05854206,5.471024918
4.308163848,3.527356265,7.55968E-05,-0.002547795,,,5.082236998,3.034301566,-4.30062661,-8.459142828,1.899973811
4.311219784,3.173801405,0.000180876,-0.002430495,,,5.083589661,1.715503657,-11.64528602,-31.44373441,3.577766662
4.311219784,3.173801405,0.000180876,-0.002430495,,,5.086119772,2.319882303,-8.353356846,-21.00392075,2.796618632
4.311851595,2.820099408,0.000247347,-0.002230648,,,5.086800687,2.837036574,-5.217136812,-11.93001702,2.108614441
4.313836763,1.320511758,0.000215295,-0.001072998,,,5.086983384,0.603521523,-20.24052485,-50.50855087,4.882986056
4.313920357,2.08047436,0.000244117,-0.001555495,,,5.088007351,2.702293264,-5.936302409,-14.29932914,2.265055527
4.318215562,1.855639296,0.000233052,-0.001388475,,,5.090219618,3.176343721,-3.737263752,-5.837664354,1.759322285
4.318215562,1.855639296,0.000233052,-0.001388475,,,5.090698705,2.150256693,-9.583497801,-23.91160443,3.091134837
4.330721207,3.078813695,0.000203606,-0.002377569,,,5.090808009,0.772643654,-18.76042232,-47.58608351,4.621558049
4.332986728,1.927819648,0.000233423,-0.001423486,,,5.091616188,2.411479988,-7.718690441,-19.36732769,2.657931
4.333333333,0,0,0,,,5.093348274,0.984977609,-16.99236883,-43.92583747,4.330232786
4.333333333,0,0,0,,,5.093469429,1.145672661,-15.71873133,-41.16542088,4.133823785
4.333333333,0,0,0,,,5.097535007,1.444249613,-13.48998617,-36.00937853,3.823192703
4.336421139,2.489135136,0.000272571,-0.001964502,,,5.098399309,1.598087274,-12.41694664,-33.36000961,3.685536222
4.336421139,2.489135136,0.000272571,-0.001964502,,,5.098750017,3.124118595,-3.921804804,-6.705635289,1.81086037
4.338053332,3.618250358,4.15894E-05,-0.002548081,,,5.101066277,0.414756994,-21.93470576,-53.65243343,5.228322103
4.338053332,3.618250358,4.15894E-05,-0.002548081,,,5.102360343,0.470966766,-21.41240518,-52.68355249,5.125883612
4.339722269,2.24142308,0.000264055,-0.001725718,,,5.103379823,3.24287477,-3.497955836,-4.514956688,1.69119712
4.339722269,2.24142308,0.000264055,-0.001725718,,,5.109325915,2.261848141,-8.726525714,-21.83908973,2.906554945
4.340470491,0.235244249,5.81343E-05,-0.000219848,,,5.109916898,3.422766382,-2.997716892,-1.151275225,1.499726882
4.341487336,2.733015333,0.000259332,-0.002160023,,,5.111158102,2.896397553,-4.896258468,-10.67581968,2.049388168
4.341487336,2.733015333,0.000259332,-0.002160023,,,5.112783771,2.588027533,-6.569104111,-16.11297673,2.419882359
4.341500685,1.512475572,0.000227452,-0.001191471,,,5.113119686,2.972846062,-4.537524412,-9.296289323,1.967351031
4.347607649,0.470488498,0.000107658,-0.000427241,,,5.113497632,1.984909737,-9.948587288,-26.59998153,3.412789983
4.347607649,0.470488498,0.000107658,-0.000427241,,,5.113652499,1.270943928,-14.74112122,-38.88106149,4.010882171
4.347757893,2,0.000233114,-0.001456986,,,5.114494797,2.528237118,-6.932747257,-17.14909934,2.501618453
4.347757893,2,0.000233114,-0.001456986,,,5.114579281,1.322998386,-14.35319417,-37.98004218,3.957015195
4.34854545,3.683911957,1.5601E-05,-0.002549531,,,5.116769008,2.925350565,-4.752211877,-10.11330596,2.018863686
4.35022263,2.983825985,0.000223766,-0.002319427,,,5.117143674,1.774274792,-11.23951727,-30.20080214,3.560005027
4.35022263,2.983825985,0.000223766,-0.002319427,,,5.117244321,3.33159461,-3.217649895,-2.767502334,1.595317846
4.356158924,3.343232204,0.000135264,-0.002476408,,,5.11779642,1.911877023,-10.3820527,-27.82720683,3.463339956
4.356158924,3.343232204,0.000135264,-0.002476408,,,5.118692978,2.620507491,-6.368070531,-15.49515308,2.379750254
4.35628958,0.706955917,0.000149069,-0.000622681,,,5.121487209,2.074700881,-10.1068973,-24.99297629,3.257136366
4.359037569,3.749573557,-1.18E-05,-0.00254732,,,5.122805747,2.337718873,-8.17063559,-20.41670962,2.789614403
4.361276556,3.465868736,9.56379E-05,-0.002508074,,,5.124415512,2.015925363,-10.56611793,-25.98655491,3.378415679
4.361276556,3.465868736,9.56379E-05,-0.002508074,,,5.124683527,3.396880553,-3.041162998,-1.494487012,1.520647621
4.364971512,0.943423336,0.00018229,-0.000804745,,,5.126747377,3.18035501,-3.686008252,-5.443654775,1.751260326
4.364971512,0.943423336,0.00018229,-0.000804745,,,5.131135285,3.06622464,-4.117492484,-7.467814673,1.870067765
4.364971512,0.943423336,0.00018229,-0.000804745,,,5.131792785,3.147816383,-3.798774504,-5.989052791,1.784536949
4.364971512,0.943423336,0.00018229,-0.000804745,,,5.13415015,3.246253808,-3.45512406,-4.178138533,1.680594345
4.364971512,0.943423336,0.00018229,-0.000804745,,,5.138316785,2.817652563,-5.257525298,-11.85087789,2.144246988
4.364971512,0.943423336,0.00018229,-0.000804745,,,5.141728016,2.190733355,-9.187381629,-22.8326488,3.051214831
4.366548256,2.649678172,0.000268218,-0.002089755,,,5.142213033,2.680590408,-5.991412968,-14.24745622,2.311371324
4.366548256,2.649678172,0.000268218,-0.002089755,,,5.143962234,2.450048473,-7.387204193,-18.29039962,2.62745322
4.367891428,2.405516288,0.000274551,-0.001880902,,,5.144659416,2.27982286,-8.53881719,-21.26026254,2.89721844
4.367891428,2.405516288,0.000274551,-0.001880902,,,5.145394894,1.894108249,-10.47142699,-27.93627826,3.496391526
4.369529687,3.815235157,-4.06E-05,-0.002541314,,,5.148014648,3.334973648,-3.174654659,-2.424174406,1.57888025
4.373559805,2.16094872,0.000258373,-0.001634097,,,5.149108031,0.221363552,-23.67871524,-56.66418376,5.662432178
4.375591943,1.181815078,0.000207808,-0.000974309,,,5.151497277,2.317224506,-8.26569852,-20.55578423,2.838706868
4.379858371,2.896741909,0.000240522,-0.00225746,,,5.151540058,0.385764078,-22.10874554,-53.84127837,5.328946587
4.386208098,1.658011458,0.000234763,-0.001271652,,,5.153175617,0.496598429,-21.08706895,-51.93289872,5.124255941
4.386208098,1.658011458,0.000234763,-0.001271652,,,5.155570698,0.659308811,-19.63758664,-49.12578437,4.850298716
4.386212374,1.420206819,0.000225439,-0.00112968,,,5.158969919,3.08618723,-4.007133205,-6.86589333,1.847683286
4.386212374,1.420206819,0.000225439,-0.00112968,,,5.160680301,1.086406825,-16.10110797,-41.7466348,4.257969619
4.389360877,3.258347541,0.000160534,-0.002432034,,,5.161211287,3.400891842,-2.988980995,-1.081003158,1.495201706
4.389360877,3.258347541,0.000160534,-0.002432034,,,5.162027383,1.491477123,-13.09606694,-34.76059537,3.830196782
4.391166039,3.556762828,6.22452E-05,-0.00251073,,,5.162079979,1.240890207,-14.91431684,-39.07715933,4.081696043
4.396921381,1.783458944,0.000237255,-0.001339404,,,5.16238901,2.800482819,-5.317612678,-11.9569754,2.169804372
4.396921381,1.783458944,0.000237255,-0.001339404,,,5.162420896,1.343404626,-14.15435108,-37.30908351,3.973922286
4.398018545,2.566059324,0.000275136,-0.002013867,,,5.171082931,2.986730175,-4.412482497,-8.553657369,1.9566827
4.399361716,2.32189744,0.000273759,-0.001793966,,,5.171492321,2.205874934,-9.022570119,-22.34555393,3.041832664
4.399361716,2.32189744,0.000273759,-0.001793966,,,5.180960438,2.407128147,-7.611310274,-18.75474574,2.70975195
4.399361716,2.32189744,0.000273759,-0.001793966,,,5.181553833,2.092999736,-9.846478694,-24.23271203,3.261640848
4.399361716,2.32189744,0.000273759,-0.001793966,,,5.191389786,2.892143488,-4.82580831,-10.07761372,2.065930217
4.399361716,2.32189744,0.000273759,-0.001793966,,,5.192864354,3.256511296,-3.356957921,-3.459739262,1.650109192
4.399361716,2.32189744,0.000273759,-0.001793966,,,5.195362884,1.9820862,-9.913324085,-26.0529118,3.474292496
4.404156485,0.114888927,3.00463E-05,-0.000108374,,,5.198050549,2.926513894,-4.655391129,-9.404462465,2.026219823
4.404156485,0.114888927,3.00463E-05,-0.000108374,,,5.198917565,3.006692765,-4.293709114,-7.953701444,1.933826382
4.407397341,2.08047436,0.000249755,-0.001539618,,,5.199715934,2.756498695,-5.502911418,-12.43024277,2.231105869
4.4088623,3.163359831,0.000186481,-0.002385511,,,5.199730639,1.845868577,-10.729408,-28.37827937,3.569521676
4.409494111,2.809657834,0.000254955,-0.002191553,,,5.20207874,2.523971019,-6.835431674,-16.5320549,2.543493434
4.409494111,2.809657834,0.000254955,-0.002191553,,,5.202845729,0.413053174,-21.75770668,-53.05742491,5.321111393
4.411293643,0.350133176,8.49226E-05,-0.000321088,,,5.203187222,0.467677754,-21.25850761,-52.11796205,5.219022578
4.411692547,1.855639296,0.000238218,-0.001375242,,,5.203582707,3.325098744,-3.136915061,-2.095698612,1.563297294
4.414389263,3.404381207,0.000115572,-0.002466463,,,5.203614408,3.211521678,-3.493048925,-4.18829551,1.698626671
4.414389263,3.404381207,0.000115572,-0.002466463,,,5.205129667,2.38986406,-7.687273731,-18.86869225,2.747625118
4.419203188,0.58598901,0.000131237,-0.000521563,,,5.207864569,3.184111725,-3.583449958,-4.651908347,1.729153186
4.421055523,3.647656921,2.50973E-05,-0.002505349,,,5.208323608,2.018905157,-10.36608971,-25.31907253,3.431162091
4.421055523,3.647656921,2.50973E-05,-0.002505349,,,5.211004356,1.315814375,-14.30623959,-37.45559501,4.039071877
4.426463712,1.927819648,0.000238482,-0.001409562,,,5.211318139,2.108141315,-9.672417957,-23.74637444,3.250090263
4.427885119,0.822456429,0.000169208,-0.000709296,,,5.211590221,1.265354413,-14.67793646,-38.32252238,4.092830642
4.427885119,0.822456429,0.000169208,-0.000709296,,,5.212800525,3.127939809,-3.784166345,-5.633322972,1.79298909
4.428363723,3.068372121,0.000209863,-0.002333752,,,5.215749219,0.110052018,-24.62093425,-58.15993188,5.977689591
4.429488834,2.482440476,0.000279467,-0.001934581,,,5.219650518,0.280995223,-22.95620208,-55.21634098,5.600143405
4.430919787,1.565742706,0.000234515,-0.001212869,,,5.219966162,2.871761115,-4.89047841,-10.20012303,2.092289688
4.431547641,3.713318521,-3.16E-06,-0.002502986,,,5.222420516,0.597058862,-20.07147474,-49.77277452,5.006734187
4.433199253,2.24142308,0.000270477,-0.001706459,,,5.223576687,0.766308324,-18.61620106,-46.850697,4.738236742
4.433199253,2.24142308,0.000270477,-0.001706459,,,5.225122582,1.585379428,-12.3943682,-32.70140761,3.793067388
4.434555031,2.726320673,0.000266234,-0.002125916,,,5.226076124,2.582509211,-6.447541891,-15.30373341,2.467929017
4.437347123,1.043118398,0.000197261,-0.000872144,,,5.226116952,0.978642279,-16.87140549,-43.17269728,4.443174176
4.437347123,1.043118398,0.000197261,-0.000872144,,,5.226805231,1.431286358,-13.45865247,-35.3529418,3.935099332
4.441234878,2,0.000238042,-0.001442352,,,5.226997732,2.279156007,-8.402449078,-20.64022862,2.941527427
4.441234878,2,0.000238042,-0.001442352,,,5.228125306,1.960992713,-10.01578533,-26.17639735,3.509933279
4.44203976,3.77898012,-3.31E-05,-0.002496752,,,5.228412682,3.370207474,-2.98160159,-1.026396089,1.491205311
4.444278747,3.495275299,8.2986E-05,-0.002471535,,,5.22890656,1.13921,-15.61090388,-40.38291786,4.247081354
4.447865146,2.973384411,0.000230502,-0.002276809,,,5.229796976,2.676324309,-5.901810352,-13.6080273,2.340674233
4.447865146,2.973384411,0.000230502,-0.002276809,,,5.230313718,2.221281088,-8.804808464,-21.6277772,3.046071729
4.447967554,1.281510139,0.000219732,-0.001034465,,,5.231093317,2.950211682,-4.507231067,-8.693718538,1.998461302
4.459615951,2.642983513,0.000275091,-0.002056678,,,5.231985331,2.61498917,-6.248649661,-14.67970267,2.424299517
4.459615951,2.642983513,0.000275091,-0.002056678,,,5.232757823,2.31066248,-8.175040745,-20.04293622,2.890057833
4.460959123,2.398821629,0.000281064,-0.001851959,,,5.234512716,0.023461817,-25.44180395,-59.52074443,6.207587632
4.460959123,2.398821629,0.000281064,-0.001851959,,,5.243513784,1.661504553,-11.87158355,-31.2538296,3.741626417
4.467036789,2.16094872,0.000264313,-0.001616081,,,5.24365711,2.036879875,-10.15102989,-24.74255992,3.415353287
4.467036789,2.16094872,0.000264313,-0.001616081,,,5.243683212,3.066484305,-3.990092922,-6.477903041,1.85885108
4.46750197,3.342893677,0.000135247,-0.002423093,,,5.243866948,1.761566946,-11.224679,-29.51821331,3.662317548
4.46750197,3.342893677,0.000135247,-0.002423093,,,5.244323898,0.851078521,-17.88077179,-45.25363156,4.63016605
4.46750197,3.342893677,0.000135247,-0.002423093,,,5.244865453,0.896345663,-17.50975094,-44.46888758,4.56725981
4.46750197,3.342893677,0.000135247,-0.002423093,,,5.247509866,1.699065693,-11.62298383,-30.57467523,3.713812375
4.46750197,3.342893677,0.000135247,-0.002423093,,,5.251733261,2.796130978,-5.229984835,-11.28621615,2.18837277
4.46750197,3.342893677,0.000135247,-0.002423093,,,5.256135813,2.50274909,-6.886795959,-16.47230116,2.592496343
4.46750197,3.342893677,0.000135247,-0.002423093,,,5.257332497,2.369068064,-7.740577596,-18.82277858,2.802713954
4.46875,0,0,0,,,5.258021699,2.890077382,-4.755568652,-9.545020604,2.070867899
4.47416823,3.586169392,4.64789E-05,-0.002468563,,,5.261102222,2.145725276,-9.294637575,-22.71202753,3.204176684
4.474979637,0.229777854,5.90024E-05,-0.000212733,,,5.262488092,2.934157542,-4.542795935,-8.711269926,2.016370054
4.474979637,0.229777854,5.90024E-05,-0.000212733,,,5.262869492,0.303983066,-22.64938797,-54.55429651,5.589358603
4.4756272,1.711278592,0.000240702,-0.001289552,,,5.264549391,0.572696606,-20.2131163,-49.92265836,5.081183288
4.4756272,1.711278592,0.000240702,-0.001289552,,,5.267731063,1.408044827,-13.58361972,-35.46993783,3.986614693
4.4756272,1.711278592,0.000240702,-0.001289552,,,5.269629719,1.978906513,-9.883710758,-25.55547902,3.524311459
4.4756272,1.711278592,0.000240702,-0.001289552,,,5.270613097,1.159818207,-15.4051237,-39.74439434,4.25322699
4.4756272,1.711278592,0.000240702,-0.001289552,,,5.271678343,3.291050926,-3.150743767,-2.098129239,1.569027214
4.475631476,1.473473953,0.000233056,-0.001152554,,,5.272200799,2.017974719,-10.23625978,-24.85621473,3.472860417
4.477500887,2.886300335,0.000247476,-0.002215725,,,5.274665119,1.881144995,-10.46050633,-27.21755061,3.594162353
4.477500887,2.886300335,0.000247476,-0.002215725,,,5.279315599,3.041926591,-4.048220701,-6.608914034,1.881502938
4.482116795,0.465022103,0.000110454,-0.000418123,,,5.280305041,2.485485004,-6.957093872,-16.58218375,2.625748541
4.482116795,0.465022103,0.000110454,-0.000418123,,,5.28379056,2.811560272,-5.110019207,-10.7366193,2.170358025
4.487003393,3.247905967,0.000164621,-0.002383242,,,5.290643955,2.692423101,-5.730509512,-12.81421078,2.329086819
4.487003393,3.247905967,0.000164621,-0.002383242,,,5.291614514,3.162479439,-3.559219702,-4.292003053,1.726475227
4.490398365,1.783458944,0.000242289,-0.001326206,,,5.298230857,2.104348015,-9.526420096,-23.149822,3.305650325
4.490398365,1.783458944,0.000242289,-0.001326206,,,5.305562573,3.256199685,-3.215672089,-2.432101647,1.596365105
4.490680063,2.318952728,0.000279879,-0.001770062,,,5.305761992,3.028402873,-4.071996864,-6.620388592,1.892525336
4.490680063,2.318952728,0.000279879,-0.001770062,,,5.305852814,0.137010548,-24.14365372,-57.14845171,5.997070712
4.490798727,0.701489522,0.000153403,-0.000611456,,,5.308420689,1.552751695,-12.5416433,-32.67372685,3.878258453
4.490798727,0.701489522,0.000153403,-0.000611456,,,5.309627689,1.896235258,-10.34481901,-26.69408106,3.604527366
4.49108624,2.559364665,0.00028184,-0.001981778,,,5.309674196,2.575410238,-6.369328526,-14.74386988,2.497770501
4.497391454,3.43378777,0.000103644,-0.002430616,,,5.309812734,3.228789732,-3.301204514,-2.901408093,1.631102581
4.497391454,3.43378777,0.000103644,-0.002430616,,,5.310388221,0.735465814,-18.74305441,-46.81481397,4.849579975
4.497606573,0.930307435,0.000186752,-0.000785828,,,5.313550753,0.999813456,-16.59031335,-42.22072294,4.478546383
4.497606573,0.930307435,0.000186752,-0.000785828,,,5.315449003,2.442990611,-7.16820635,-17.04982792,2.702039489
4.500874326,2.08047436,0.000255115,-0.001522897,,,5.315514036,2.217562525,-8.673799695,-21.02942365,3.092343605
4.500874326,2.08047436,0.000255115,-0.001522897,,,5.316496349,3.32616564,-2.983035519,-1.026271616,1.491438932
4.502561807,2.802963175,0.000261243,-0.002154825,,,5.316689075,2.613967519,-6.1349691,-13.99792441,2.442754409
4.504057714,3.677063484,5.79834E-06,-0.002457169,,,5.322275547,2.088422652,-9.595298194,-23.24281322,3.350338679
4.504057714,3.677063484,5.79834E-06,-0.002457169,,,5.322701255,2.707852395,-5.602272847,-12.26741308,2.310827184
4.505169531,1.855639296,0.000243156,-0.001361334,,,5.331756706,1.772098407,-11.09042324,-28.69073145,3.709636863
4.505169531,1.855639296,0.000243156,-0.001361334,,,5.332716743,0.415237897,-21.48761082,-52.19801854,5.421442643
4.506504816,3.152918257,0.000191422,-0.00233811,,,5.333004411,0.461252659,-21.07487239,-51.40265192,5.333744331
4.506504816,3.152918257,0.000191422,-0.00233811,,,5.336530591,1.308525474,-14.2281569,-36.71172174,4.133908926
4.509722734,1.142813459,0.000211021,-0.00093579,,,5.337024113,1.266018911,-14.53778562,-37.44567076,4.179592672
4.509722734,1.142813459,0.000211021,-0.00093579,,,5.337206798,2.274345939,-8.240002903,-19.85735321,2.996003778
4.514549832,3.742725084,-2.50E-05,-0.002450742,,,5.338365727,2.554915871,-6.447615581,-14.87115451,2.533288509
4.519940696,1.927819648,0.0002433,-0.001394927,,,5.341316118,3.166099063,-3.480325177,-3.772292007,1.699982351
4.519940696,1.927819648,0.0002433,-0.001394927,,,5.342532815,2.365349502,-7.622427229,-18.20589547,2.837822462
4.520338889,1.61900984,0.000241028,-0.001232251,,,5.342966889,2.305852413,-8.016133292,-19.25492618,2.941439492
4.520338889,1.61900984,0.000241028,-0.001232251,,,5.349071788,0.159998391,-23.82063835,-56.48493633,5.980160845
4.520343165,1.381205201,0.000230333,-0.001090732,,,5.349346521,1.529510164,-12.66235685,-32.78232975,3.925044089
4.520343165,1.381205201,0.000230333,-0.001090732,,,5.349566675,1.982231226,-9.811105509,-24.89036539,3.566943857
4.522556529,2.475745817,0.000285896,-0.001903544,,,5.349594807,2.890585642,-4.635592336,-8.739721935,2.063102317
4.522556529,2.475745817,0.000285896,-0.001903544,,,5.350086662,2.828872666,-4.935502551,-9.853109182,2.145677721
4.524517599,2.238478368,0.000276138,-0.001683702,,,5.351732506,2.015141579,-10.08358224,-24.29808632,3.522258134
4.526006239,3.057930547,0.000215471,-0.002287754,,,5.351834669,0.329192309,-22.23101865,-53.55812576,5.608901838
4.526006239,3.057930547,0.000215471,-0.002287754,,,5.352517096,0.711103559,-18.88167831,-46.95656995,4.917221188
4.527280938,3.524681862,6.79841E-05,-0.002430102,,,5.353184027,0.545033117,-20.29992845,-49.8245926,5.195502982
4.527280938,3.524681862,6.79841E-05,-0.002430102,,,5.353357216,2.927717976,-4.456410313,-8.032136315,2.013166751
4.527622727,2.719626014,0.000272607,-0.002090323,,,5.353997613,1.382458397,-13.67962082,-35.30435943,4.06899803
4.534711862,2,0.000242717,-0.001426971,,,5.354744612,2.632283786,-5.975315279,-13.35100644,2.420582478
4.534711862,2,0.000242717,-0.001426971,,,5.35525729,1.020421663,-16.37542179,-41.57868451,4.480241591
4.534711862,2,0.000242717,-0.001426971,,,5.356312571,1.183073452,-15.13117633,-38.74980627,4.284472423
4.534711862,2,0.000242717,-0.001426971,,,5.363729081,1.916652262,-10.18470136,-25.92845124,3.619867851
4.534711862,2,0.000242717,-0.001426971,,,5.36529789,1.645339126,-11.87566875,-30.65020752,3.832405171
4.534711862,2,0.000242717,-0.001426971,,,5.365818862,0.027851755,-25.06188083,-58.64456397,6.320822618
4.539573152,0.114888927,3.1151E-05,-0.000107277,,,5.366719277,1.78718867,-10.96894874,-28.16677206,3.71782107
4.545507662,2.962942836,0.000236602,-0.002232228,,,5.36721776,2.481691704,-6.844568637,-15.93729635,2.65192369
4.545507662,2.962942836,0.000236602,-0.002232228,,,5.367734941,3.003048788,-4.099699808,-6.530269344,1.909144685
4.545507662,2.962942836,0.000236602,-0.002232228,,,5.367762511,3.152575345,-3.494269052,-3.780123078,1.705680659
4.545507662,2.962942836,0.000236602,-0.002232228,,,5.368614106,2.197271567,-8.715243952,-20.96669655,3.151875452
4.545507662,2.962942836,0.000236602,-0.002232228,,,5.370041678,1.689928328,-11.58226707,-29.83822241,3.797696246
4.545507662,2.962942836,0.000236602,-0.002232228,,,5.371842817,0.840645835,-17.78357861,-44.58255731,4.734977064
4.545802789,0.344666781,8.6711E-05,-0.000312937,,,5.372485703,0.894382908,-17.3490975,-43.64643105,4.659331226
4.545802789,0.344666781,8.6711E-05,-0.000312937,,,5.373888316,2.071024395,-9.615688692,-23.14641779,3.410966034
4.552277469,2.395876917,0.000287098,-0.001825844,,,5.373967084,2.570817405,-6.300110623,-14.28971565,2.514033559
4.552683647,2.636288853,0.000281441,-0.002022261,,,5.380166741,3.291414115,-2.995055802,-1.081242791,1.496853731
4.552683647,2.636288853,0.000281441,-0.002022261,,,5.380167704,2.748698281,-5.304180517,-11.04091755,2.254331439
4.553712334,0.580522615,0.000134727,-0.000511286,,,5.383331091,2.609628039,-6.061742147,-13.51558771,2.456233519
4.553712334,0.580522615,0.000134727,-0.000511286,,,5.385212149,3.258875488,-3.093102903,-1.642916794,1.542398093
4.557170422,3.615575955,2.80169E-05,-0.00242121,,,5.392658796,2.181346203,-8.780232623,-21.05620607,3.191711333
4.557170422,3.615575955,2.80169E-05,-0.00242121,,,5.397207702,2.49508687,-6.714806222,-15.44914474,2.635232578
4.558355136,2.158004008,0.00026942,-0.001594523,,,5.402251451,2.381260693,-7.416997857,-17.43649876,2.825493955
4.560110981,3.314159196,0.000143668,-0.002367815,,,5.407865391,1.832350631,-10.65893688,-27.06646,3.704614401
4.560110981,3.314159196,0.000143668,-0.002367815,,,5.411546091,1.707842128,-11.43307445,-29.2158823,3.805611708
4.56052018,0.809340528,0.00017283,-0.000691097,,,5.413881349,1.617748875,-12.01466703,-30.77185605,3.883556745
4.565050578,1.526741087,0.000240144,-0.001173441,,,5.415666243,3.099043922,-3.633883027,-4.331540691,1.757841912
4.565050578,1.526741087,0.000240144,-0.001173441,,,5.416606924,3.242821348,-3.099614084,-1.650329153,1.544993989
4.568197696,3.398384649,0.000114275,-0.002384493,,,5.417092812,1.476360702,-12.96214502,-33.21455914,4.014714833
4.568197696,3.398384649,0.000114275,-0.002384493,,,5.417124533,0.055140852,-24.66266072,-57.85646223,6.294858841
4.569982184,1.030002497,0.00020206,-0.000852211,,,5.418475857,0.217880776,-23.11424481,-55.0487544,5.901993836
4.570568582,2.879605676,0.000252962,-0.002176185,,,5.418613451,2.267866154,-8.133929837,-19.31686035,3.033297205
4.570568582,2.879605676,0.000252962,-0.002176185,,,5.419191129,2.705091993,-5.479643209,-11.49120163,2.315016139
4.579612404,3.219171486,0.000173485,-0.002328365,,,5.421190016,0.65203263,-19.26710814,-47.51988422,5.058732424
4.581998409,2.316008016,0.000285582,-0.001745191,,,5.421749222,1.075308907,-15.86845674,-40.16337051,4.453582411
4.581998409,2.316008016,0.000285582,-0.001745191,,,5.421854422,0.81172516,-17.9454426,-44.74347737,4.809592767
4.582098346,1.242508521,0.000223476,-0.000995576,,,5.421995945,0.918847114,-17.08574394,-42.8815576,4.657271101
4.582098346,1.242508521,0.000223476,-0.000995576,,,5.425451312,2.3052678,-7.871296263,-18.59735563,2.965737892
4.584153935,2.552670006,0.000288024,-0.001948494,,,5.42830013,2.142861645,-8.980577455,-21.45115632,3.281563381
4.584153935,2.552670006,0.000288024,-0.001948494,,,5.432241393,2.394655859,-7.279701499,-16.95048733,2.807994351
4.584270857,1.712472734,0.000246371,-0.001274903,,,5.443271864,2.6860072,-5.54700755,-11.62790875,2.341774845
4.584270857,1.712472734,0.000246371,-0.001274903,,,5.444675441,2.826166651,-4.816962673,-9.073823335,2.135967541
4.587059905,3.706470047,-1.66E-05,-0.002403538,,,5.445238173,3.258521647,-3.001379719,-1.088708545,1.499481094
4.587059905,3.706470047,-1.66E-05,-0.002403538,,,5.447017477,1.916652262,-10.12431555,-25.2869467,3.659523568
4.587059905,3.706470047,-1.66E-05,-0.002403538,,,5.447157141,2.248960997,-8.20751417,-19.42024787,3.07647839
4.592192672,2.077529648,0.000259568,-0.001502584,,,5.451681646,1.78718867,-10.90204617,-27.52300181,3.761103228
4.592192672,2.077529648,0.000259568,-0.001502584,,,5.454458038,1.689288308,-11.51567556,-29.21706077,3.843006188
4.595629502,2.796268515,0.000266933,-0.002116536,,,5.455438042,2.563709081,-6.214716657,-13.72817972,2.530058023
4.595629502,2.796268515,0.000266933,-0.002116536,,,5.456122408,2.505823128,-6.554585387,-14.76219313,2.623538749
4.59808718,3.489278741,7.81784E-05,-0.002383736,,,5.457176712,2.071024395,-9.435576061,-22.48928349,3.443836558
4.599042023,1.784653086,0.000247846,-0.001310686,,,5.457302614,1.982231226,-9.736201981,-24.05332921,3.616160745
4.599113827,3.124183776,0.000200505,-0.002283636,,,5.459468445,2.015141579,-9.840922784,-23.45666002,3.569580069
4.604166667,0,0,0,,,5.461052669,2.321169334,-7.701459276,-18.02223546,2.944059663
4.609762267,1.434472335,0.000237995,-0.001113148,,,5.461537085,1.643784256,-11.8029218,-29.96024107,3.885630953
4.609762267,1.434472335,0.000237995,-0.001113148,,,5.462323721,3.000342773,-3.979030712,-5.727563872,1.87935093
4.610396304,0.229777854,6.10576E-05,-0.000210452,,,5.463326113,2.59640246,-6.01432138,-13.07220095,2.478345333
4.613813188,1.856833438,0.000248574,-0.001344924,,,5.464252386,3.149814943,-3.363925832,-2.942990014,1.656108848
4.613874876,2.472801105,0.000291681,-0.001875071,,,5.467972338,0.027289097,-24.79937178,-58.0135662,6.409616223
4.615835946,2.235533656,0.000281397,-0.001660088,,,5.47189939,0.891396809,-17.23418632,-43.01215513,4.725627499
4.616625941,0.459555709,0.000113027,-0.000408848,,,5.471948118,2.887085334,-4.48150385,-7.719848509,2.040848614
4.616625941,0.459555709,0.000113027,-0.000408848,,,5.472400752,0.838011928,-17.65919278,-43.93790096,4.80214322
4.616625941,0.459555709,0.000113027,-0.000408848,,,5.475710527,2.924217668,-4.301870146,-7.005829442,1.98536933
4.616625941,0.459555709,0.000113027,-0.000408848,,,5.477621165,2.181346203,-8.610013883,-20.37256913,3.217593127
4.616625941,0.459555709,0.000113027,-0.000408848,,,5.480983765,2.265704889,-8.030195859,-18.84591437,3.051929959
4.616625941,0.459555709,0.000113027,-0.000408848,,,5.482509368,1.525780414,-12.56422362,-31.86792978,4.002971952
4.61861525,3.029196066,0.000224565,-0.002233691,,,5.48320622,2.428182019,-6.981374654,-15.9259702,2.756319543
4.61861525,3.029196066,0.000224565,-0.002233691,,,5.484536815,1.378802132,-13.5729212,-34.42255652,4.148282886
4.620690422,2.712931355,0.000278391,-0.00205332,,,5.486851773,1.179417188,-15.00807045,-37.88660233,4.366948199
4.620690422,2.712931355,0.000278391,-0.00205332,,,5.486899616,0.157704491,-23.51441609,-55.64553951,6.094268632
4.623433788,0.688373621,0.000156108,-0.000594038,,,5.48694694,0.326943604,-21.96806244,-52.71788,5.711501805
4.624406025,2,0.000246943,-0.001411521,,,5.487829898,1.771559266,-10.96960509,-27.51987276,3.79010439
4.624406025,2,0.000246943,-0.001411521,,,5.488041433,2.300511579,-7.786555636,-18.16760488,2.987162535
4.627976663,3.580172834,3.75496E-05,-0.002374528,,,5.488296298,0.542784411,-20.07768099,-48.96346163,5.290202894
4.628584354,1.92901379,0.00024855,-0.001377605,,,5.488370834,3.163040591,-3.276065745,-2.472893193,1.620166186
4.628584354,1.92901379,0.00024855,-0.001377605,,,5.488420137,1.016691913,-16.23367899,-40.71321431,4.566778755
4.628982546,1.620203982,0.000246621,-0.00121824,,,5.490344924,0.708809658,-18.68207677,-46.06230888,5.009743352
4.630241634,0.917191534,0.000190824,-0.000766587,,,5.493122872,2.659177508,-5.617097391,-11.68110196,2.378262038
4.630241634,0.917191534,0.000190824,-0.000766587,,,5.502325998,1.896235258,-10.20308228,-25.21422937,3.697372078
4.632425067,2.951185262,0.000241937,-0.002189756,,,5.502633745,2.805299562,-4.83570047,-8.941246098,2.15354327
4.632425067,2.951185262,0.000241937,-0.002189756,,,5.505386809,1.30379599,-14.0825803,-35.58011781,4.238016587
4.642357795,1.129697558,0.000216069,-0.000914754,,,5.505880331,1.261289427,-14.38776808,-36.31926472,4.284619236
4.643595816,2.392932205,0.000292659,-0.001798688,,,5.506116105,2.195450956,-8.455176371,-19.88988388,3.195719625
4.645751342,2.629594194,0.000287213,-0.001986578,,,5.507488358,0.412329132,-21.16953687,-51.10028105,5.549514827
4.645751342,2.629594194,0.000287213,-0.001986578,,,5.507776025,0.458343895,-20.76797801,-50.29913341,5.459584354
4.645751342,2.629594194,0.000287213,-0.001986578,,,5.508607607,3.22980949,-2.997615076,-1.03400183,1.497382857
4.645751342,2.629594194,0.000287213,-0.001986578,,,5.514973856,2.088422652,-9.183775425,-21.71813254,3.423694958
4.645751342,2.629594194,0.000287213,-0.001986578,,,5.51809989,2.38407649,-7.194723705,-16.42306516,2.83707982
4.645751342,2.629594194,0.000287213,-0.001986578,,,5.522653701,1.54771215,-12.37975341,-31.18242128,4.001885738
4.649673482,2.155059296,0.000274143,-0.001572211,,,5.524605177,3.022142163,-3.791179253,-4.757618521,1.817706665
4.649673482,2.155059296,0.000274143,-0.001572211,,,5.52671448,2.786214769,-4.895320118,-9.075823433,2.176309249
4.652719992,3.285424716,0.000151699,-0.002310935,,,5.528798314,3.161081289,-3.218752569,-2.133591465,1.595680944
4.652719992,3.285424716,0.000151699,-0.002310935,,,5.529732891,0.134242674,-23.62805577,-55.77273381,6.182498894
4.654473957,1.342203582,0.00023453,-0.001051394,,,5.530457901,0.99356827,-16.3567737,-40.81727099,4.620180767
4.654473957,1.342203582,0.00023453,-0.001051394,,,5.532924243,0.730953158,-18.43317719,-45.38175143,4.999395511
4.654473957,1.342203582,0.00023453,-0.001051394,,,5.537436138,1.978906513,-9.696602555,-23.47687705,3.64693301
4.654473957,1.342203582,0.00023453,-0.001051394,,,5.538474249,1.880605854,-10.2675209,-25.20558804,3.722724658
4.654473957,1.342203582,0.00023453,-0.001051394,,,5.540007218,2.017974719,-9.63445021,-22.76477569,3.589912023
4.654473957,1.342203582,0.00023453,-0.001051394,,,5.540289275,2.495452199,-6.475330429,-14.23259423,2.642024059
4.657485987,2.867848101,0.000258436,-0.002134725,,,5.540834739,2.366674769,-7.262879577,-16.5438478,2.870349308
4.657866147,3.671066927,-7.96E-06,-0.002356498,,,5.543468795,2.102527405,-9.021408938,-21.23692806,3.400015366
4.660806707,3.369650168,0.000121591,-0.002326576,,,5.548723626,3.035367811,-3.696956009,-4.29124914,1.784177959
4.668893421,3.453875621,8.84044E-05,-0.002336498,,,5.55763061,2.736645878,-5.10214325,-9.706565358,2.245426332
4.668893421,3.453875621,8.84044E-05,-0.002336498,,,5.559061393,2.263714075,-7.891531555,-18.23535839,3.067986138
4.672221415,3.190437006,0.000181901,-0.002272064,,,5.561960946,2.209022613,-8.249393545,-19.18860786,3.178221777
4.673316756,2.313063304,0.00029083,-0.00171939,,,5.562163496,2.881376431,-4.372636711,-7.01394319,2.01790987
4.673316756,2.313063304,0.00029083,-0.00171939,,,5.564310309,2.550293986,-6.113832496,-13.03498087,2.547272498
4.673694236,1.527935229,0.000245631,-0.001160103,,,5.565006645,2.293034604,-7.688391109,-17.66088253,3.011239092
4.674989819,0.114888927,3.22129E-05,-0.000106122,,,5.566629889,2.925456592,-4.158550734,-6.161342324,1.947287819
4.675472282,2.549725294,0.000293392,-0.001917513,,,5.569750128,1.399585593,-13.34055065,-33.42574811,4.169040045
4.675472282,2.549725294,0.000293392,-0.001917513,,,5.57219838,2.582987365,-5.913990231,-12.37414993,2.491476417
4.681219456,0.344666781,8.95675E-05,-0.000309379,,,5.572632162,1.151358973,-15.11460475,-37.7537565,4.444841085
4.681219456,0.344666781,8.95675E-05,-0.000309379,,,5.573833843,2.03471861,-9.434978727,-22.19488767,3.559987552
4.681886835,2.077529648,0.000264086,-0.001485053,,,5.575455792,3.062380139,-3.539783722,-3.542756367,1.725254517
4.682546907,2.784510941,0.000272434,-0.002076115,,,5.575468935,0.298780401,-22.02830372,-52.61733889,5.829302045
4.686347395,0.567406715,0.000136442,-0.000494708,,,5.577148834,0.56749394,-19.70940109,-47.92549544,5.298295528
4.686347395,0.567406715,0.000136442,-0.000494708,,,5.57728974,2.648806579,-5.539576314,-11.13390272,2.381933397
4.691722838,3.095449295,0.000209082,-0.00222791,,,5.577425491,1.759038004,-10.97245569,-27.0450163,3.836083436
4.691722838,3.095449295,0.000209082,-0.00222791,,,5.577815108,1.695917257,-11.36710787,-28.1550289,3.890861063
4.692914515,1.713666876,0.000251701,-0.001259428,,,5.580348085,1.960352693,-9.769954204,-23.4617687,3.673544139
4.692914515,1.713666876,0.000251701,-0.001259428,,,5.583778369,1.657585463,-11.60577301,-28.78416768,3.927202925
4.693155241,0.796224627,0.000176059,-0.000672669,,,5.589848256,2.34655601,-7.298313372,-16.49130729,2.909999945
4.698782905,3.544769713,4.72437E-05,-0.002327023,,,5.590749975,2.858720685,-4.436638126,-7.172708733,2.041960338
4.702617245,1.016886596,0.000206438,-0.000831901,,,5.590837528,2.137185363,-8.677121605,-20.23217707,3.333898461
4.705193222,2.469856393,0.000296931,-0.001845484,,,5.591938466,2.471092405,-6.530273005,-14.228926,2.681847548
4.705193222,2.469856393,0.000296931,-0.001845484,,,5.594621497,3.186802545,-3.009187019,-1.036205329,1.502479077
4.705532655,3.017438491,0.000229011,-0.002188769,,,5.595261138,2.941156891,-4.040871447,-5.610541799,1.90888444
4.707154292,2.232588944,0.000286222,-0.00163565,,,5.595293849,3.127833521,-3.238474857,-2.136475962,1.603461562
4.707154292,2.232588944,0.000286222,-0.00163565,,,5.599206316,0.022987844,-24.48711195,-57.24443867,6.520706224
4.707607827,2.70117378,0.00028381,-0.002013967,,,5.600746249,0.885385961,-17.09975226,-42.20482208,4.804571124
4.707607827,2.70117378,0.00028381,-0.002013967,,,5.601055791,2.016743892,-9.500206837,-22.29343513,3.608347811
4.70768568,1.785847228,0.000253045,-0.001294299,,,5.601168587,0.840415499,-17.45212643,-42.9885841,4.869604983
4.714100188,2,0.000250893,-0.001395406,,,5.605397278,1.579235593,-12.09371198,-29.99735322,4.007639793
4.714100188,2,0.000250893,-0.001395406,,,5.609894462,1.42151733,-13.14808129,-32.73783899,4.164246038
4.714733406,1.22939262,0.000228684,-0.00097335,,,5.610141114,1.98144618,-9.626612159,-22.84714008,3.664632635
4.714733406,1.22939262,0.000228684,-0.00097335,,,5.612572977,2.775635399,-4.813819032,-8.503250063,2.166612048
4.718278517,1.92901379,0.000252604,-0.001362124,,,5.614669926,1.128235331,-15.23501382,-37.85013325,4.492827226
4.718405925,1.435666477,0.00024335,-0.001100515,,,5.614673315,2.453690685,-6.593573294,-14.34771655,2.711241578
4.718405925,1.435666477,0.00024335,-0.001100515,,,5.616555623,3.001451813,-3.73516718,-4.297209287,1.799746245
4.719342472,2.939427687,0.000246694,-0.002146052,,,5.616577577,1.843339634,-10.42629863,-25.24567075,3.777678485
4.719342472,2.939427687,0.000246694,-0.002146052,,,5.61830221,0.275318584,-22.14109896,-52.73742633,5.907088129
4.722456846,1.85802758,0.000253615,-0.001327604,,,5.618935174,0.966843159,-16.44440067,-40.64735565,4.700949924
4.722456846,1.85802758,0.000253615,-0.001327604,,,5.619393304,0.107828758,-23.64617162,-55.64201584,6.309792205
4.728672389,3.635663806,9.99949E-07,-0.002308702,,,5.619728152,0.58963744,-19.44955039,-47.24277441,5.281974531
4.734005476,2.624635362,0.000292004,-0.001952616,,,5.620916232,0.755900837,-18.09383561,-44.32653461,5.007236901
4.734005476,2.624635362,0.000292004,-0.001952616,,,5.625871042,2.097509451,-8.8736579,-20.6515012,3.426843793
4.734914162,2.389987493,0.000297706,-0.001770532,,,5.627247954,2.86949154,-4.326152365,-6.643574369,2.00889448
4.734914162,2.389987493,0.000297706,-0.001770532,,,5.628146466,2.924714227,-4.063729203,-5.614536257,1.918713647
4.737626204,1.621398124,0.000251878,-0.001203465,,,5.630741534,1.304057982,-13.94467773,-34.64464114,4.297509019
4.739367645,2.155059296,0.000278779,-0.001552475,,,5.631327399,1.25359802,-14.30316055,-35.52664625,4.353846223
4.739583333,0,0,0,,,5.637287204,0.405822663,-20.96479144,-50.3324398,5.638994066
4.744403392,2.856090527,0.000263332,-0.002092164,,,5.637628697,0.460447243,-20.49860931,-49.37599451,5.530558233
4.745329003,3.256690235,0.000159303,-0.002252752,,,5.638002628,2.662012736,-5.367274003,-10.35709931,2.345704705
4.745329003,3.256690235,0.000159303,-0.002252752,,,5.642216722,3.086117648,-3.328901191,-2.480520946,1.640930867
4.745812971,0.229777854,6.30219E-05,-0.00020805,,,5.64273966,2.204103526,-8.11458026,-18.60379253,3.196852126
4.745812971,0.229777854,6.30219E-05,-0.00020805,,,5.643318218,2.784708574,-4.717753623,-8.060278343,2.140432735
4.75056048,0.455033678,0.000115543,-0.000400233,,,5.643539908,2.899723994,-4.155599264,-5.936576365,1.95173236
4.75056048,0.455033678,0.000115543,-0.000400233,,,5.644257631,2.987600809,-3.750818377,-4.29964885,1.80618038
4.753415717,3.340915687,0.000128538,-0.002267296,,,5.644598149,2.537470607,-6.049153168,-12.56901008,2.558077034
4.756068849,0.675257721,0.000158425,-0.00057648,,,5.646931311,2.41382619,-6.774712071,-14.79081824,2.781693507
4.756068849,0.675257721,0.000158425,-0.00057648,,,5.648802322,2.082367872,-8.926602563,-20.73272387,3.46435334
4.761502432,3.42514114,9.44835E-05,-0.002276048,,,5.653962156,2.576281241,-5.812376265,-11.78053542,2.488275988
4.762876695,0.904075634,0.000194475,-0.000747062,,,5.659048644,3.151616411,-3.032028226,-1.094368929,1.512813011
4.762876695,0.904075634,0.000194475,-0.000747062,,,5.663550986,2.257351094,-7.722854717,-17.47183906,3.08694313
4.763726417,2.544766462,0.000298103,-0.001884886,,,5.668398445,1.890959813,-10.10097423,-23.98465524,3.7508064
4.764635102,2.310118592,0.000295587,-0.001692698,,,5.668747869,2.67108591,-5.266519698,-9.91777811,2.321279747
4.764635102,2.310118592,0.000295587,-0.001692698,,,5.669496238,2.286671624,-7.522489724,-16.89338784,3.027239903
4.764635102,2.310118592,0.000295587,-0.001692698,,,5.66991873,3.072266644,-3.339087524,-2.482041852,1.645022466
4.764635102,2.310118592,0.000295587,-0.001692698,,,5.67062697,2.341636923,-7.173553547,-15.89209936,2.91792631
4.764635102,2.310118592,0.000295587,-0.001692698,,,5.671586912,2.516812852,-6.12001946,-12.70864843,2.589797924
4.764635102,2.310118592,0.000295587,-0.001692698,,,5.672841281,1.481677023,-12.67565647,-31.19695129,4.127799892
4.764830425,3.161702525,0.000189826,-0.002214613,,,5.677381151,2.014104753,-9.33680353,-21.71665685,3.628445231
4.764830425,3.161702525,0.000189826,-0.002214613,,,5.67839727,1.330093363,-13.70950924,-33.82612894,4.288569114
4.769464312,2.772753366,0.000277357,-0.002034719,,,5.681230844,1.226147715,-14.44305928,-35.63441075,4.40615772
4.769464312,2.772753366,0.000277357,-0.002034719,,,5.684037725,1.070951441,-15.57376236,-38.34254184,4.594671326
4.769589147,3.509366592,5.70567E-05,-0.002278863,,,5.685034463,1.984370596,-9.55024296,-22.18472767,3.676464663
4.769589147,3.509366592,5.70567E-05,-0.002278863,,,5.687864388,0.216891586,-22.49641476,-53.2852783,6.081399107
4.771580998,2.077529648,0.00026827,-0.001466791,,,5.688022515,0.646652619,-18.86460877,-45.7625349,5.217076697
4.774992856,1.116581657,0.000220663,-0.00089329,,,5.688135009,0.377970908,-21.09828578,-50.46843695,5.722883374
4.774992856,1.116581657,0.000220663,-0.00089329,,,5.688175027,0.486734011,-20.17981311,-48.56420635,5.505399997
4.778640243,3.083691721,0.000212481,-0.002180439,,,5.690460135,2.587052096,-5.68813713,-11.26214025,2.460475414
4.781494025,1.329961064,0.000239619,-0.001029091,,,5.691933972,3.135173747,-3.038659726,-1.095713125,1.515815411
4.781494025,1.329961064,0.000239619,-0.001029091,,,5.693007945,2.184070022,-8.139878637,-18.54119173,3.241726022
4.782337893,1.529129371,0.000250788,-0.001146061,,,5.693495556,1.908728587,-9.976170864,-23.46482203,3.740749349
4.782337893,1.529129371,0.000250788,-0.001146061,,,5.697075561,2.448672731,-6.471965327,-13.72491582,2.710174459
4.79245006,3.005680917,0.00023284,-0.002142636,,,5.698400961,2.066160968,-8.923969326,-20.6118958,3.5072693
4.793447357,2.464897561,0.000301477,-0.001814225,,,5.701846882,2.779205292,-4.647703423,-7.633175689,2.125113582
4.795861961,2.696214948,0.000287964,-0.001977565,,,5.70477247,2.530585607,-5.981062835,-12.16652971,2.557803245
4.796848455,2.232588944,0.000290802,-0.001613581,,,5.704789851,1.769187964,-10.79867302,-25.85667496,3.864648628
4.796848455,2.232588944,0.000290802,-0.001613581,,,5.705397215,2.997409427,-3.602966783,-3.552149791,1.750655179
4.79947863,3.600260685,1.02385E-05,-0.002260315,,,5.706258216,2.839199609,-4.34181817,-6.484656402,2.021112753
4.801558172,1.714861018,0.000256659,-0.001243146,,,5.710495722,2.954481763,-3.788357964,-4.305516779,1.821691292
4.801558172,1.714861018,0.000256659,-0.001243146,,,5.714281686,2.562014217,-5.785822052,-11.50890181,2.498632385
4.803794352,2,0.000254548,-0.001378642,,,5.715939224,2.168928443,-8.189995808,-18.62023995,3.275092876
4.803794352,2,0.000254548,-0.001378642,,,5.719982265,2.864666883,-4.19466085,-5.887511468,1.970425364
4.806259877,2.927670112,0.000250839,-0.002101243,,,5.721506012,2.691365993,-5.067921157,-9.073579613,2.267845126
4.806259877,2.927670112,0.000250839,-0.002101243,,,5.723462881,2.933430441,-3.863044755,-4.57793903,1.85002257
4.80797268,1.92901379,0.000256373,-0.001346026,,,5.725030478,2.460274652,-6.351000242,-13.26993206,2.683190022
4.810406485,0.114888927,3.32248E-05,-0.000104908,,,5.725235273,3.062862809,-3.281068344,-2.143045722,1.620736438
4.810406485,0.114888927,3.32248E-05,-0.000104908,,,5.727726579,2.355293835,-6.976532718,-15.1537246,2.885531602
4.812151009,1.85802758,0.000257477,-0.001312165,,,5.728868195,1.30599042,-13.82277286,-33.86570731,4.333896362
4.815153995,0.340144751,9.11851E-05,-0.000301843,,,5.731115905,1.252504734,-14.19757163,-34.79203252,4.395065055
4.816329337,1.78704137,0.000257854,-0.001277064,,,5.732761638,1.589385553,-11.90552077,-28.82483377,4.040196453
4.816329337,1.78704137,0.000257854,-0.001277064,,,5.734300246,1.926687373,-9.837500218,-22.81104826,3.731671817
4.820281934,0.562884684,0.00013951,-0.000484862,,,5.738921122,0.459225702,-20.31073099,-48.68994722,5.582507512
4.822259611,2.619676531,0.000296194,-0.001917602,,,5.739222597,0.405087179,-20.76288552,-49.63774029,5.691376683
4.822259611,2.619676531,0.000296194,-0.001917602,,,5.739818658,1.43187129,-12.94295231,-31.55787942,4.201656369
4.823168297,2.385028661,0.000302002,-0.00174067,,,5.740720526,2.249888003,-7.61022019,-16.94995697,3.099889696
4.823168297,2.385028661,0.000302002,-0.00174067,,,5.742564577,1.709046523,-11.13542125,-26.62301315,3.928353665
4.825790302,0.783108727,0.00017887,-0.000654048,,,5.747778193,2.284694693,-7.374771153,-16.25993196,3.026425253
4.825790302,0.783108727,0.00017887,-0.000654048,,,5.748527838,1.670714729,-11.37020721,-27.25662103,3.965845554
4.829061809,2.155059296,0.000283017,-0.001531942,,,5.750303093,2.133079131,-8.351129141,-18.9756242,3.35523124
4.829061809,2.155059296,0.000283017,-0.001531942,,,5.75136929,1.126253726,-15.0824839,-36.86450339,4.552380678
4.831320797,2.844332952,0.00026762,-0.00204862,,,5.751742116,2.635972206,-5.310765229,-9.820517016,2.354039436
4.831320797,2.844332952,0.00026762,-0.00204862,,,5.752941214,0.964900597,-16.27787452,-39.69611887,4.761744729
4.835252306,1.003770695,0.000210361,-0.000811257,,,5.754922273,0.753958275,-17.89952319,-43.39511377,5.070879464
4.835252306,1.003770695,0.000210361,-0.000811257,,,5.755681495,2.366895755,-6.850062953,-14.70096497,2.858295898
4.837938013,3.227955754,0.000166451,-0.002193546,,,5.75596901,0.107828758,-23.2923672,-54.72835194,6.389703471
4.837938013,3.227955754,0.000166451,-0.002193546,,,5.756393594,3.105916496,-3.040574926,-1.042759801,1.516884904
4.837938013,3.227955754,0.000166451,-0.002193546,,,5.756427517,0.587655835,-19.22373637,-46.30940401,5.34976715
4.837938013,3.227955754,0.000166451,-0.002193546,,,5.757622886,0.275318584,-21.82560525,-51.78519755,5.980855611
4.837938013,3.227955754,0.000166451,-0.002193546,,,5.766222085,2.898664281,-3.951551006,-4.831359493,1.884416433
4.837938013,3.227955754,0.000166451,-0.002193546,,,5.767942474,2.231913284,-7.667104122,-17.04210593,3.13603282
4.841753475,1.217150102,0.000233243,-0.000951819,,,5.771808962,2.614880747,-5.389230734,-10.02838913,2.384565257
4.845425993,1.423423959,0.000248436,-0.001077,,,5.774086922,0.882873201,-16.87143102,-40.98415134,4.884515538
4.846024728,3.312181207,0.000135097,-0.002206953,,,5.774509261,0.837902738,-17.21621129,-41.77339883,4.950390237
4.846024728,3.312181207,0.000135097,-0.002206953,,,5.775870925,0.022987844,-23.99719778,-56.07628417,6.630492073
4.846269861,1.622592266,0.00025677,-0.001187944,,,5.777922325,2.521442705,-5.898223727,-11.6875016,2.554773599
4.846269861,1.622592266,0.00025677,-0.001187944,,,5.778059048,2.468247158,-6.203677274,-12.65897436,2.655579981
4.85174783,3.14994495,0.000192025,-0.00216452,,,5.778318847,2.066160968,-8.73520757,-19.94438078,3.510953546
4.85174783,3.14994495,0.000192025,-0.00216452,,,5.780757238,2.014104753,-9.084673628,-20.8600526,3.637265656
4.851980551,2.53980763,0.00030223,-0.001851318,,,5.780963751,2.298467447,-7.219618284,-15.7243935,2.993684297
4.852385661,2.307503558,0.000299684,-0.001666439,,,5.782334457,1.411567405,-13.03566722,-31.58591709,4.236108313
4.852385661,2.307503558,0.000299684,-0.001666439,,,5.782503563,1.795042492,-10.57082813,-24.76882515,3.855872955
4.854111443,3.396406659,0.000100258,-0.00221451,,,5.783205933,2.744783417,-4.681499536,-7.531185219,2.146751183
4.854111443,3.396406659,0.000100258,-0.00221451,,,5.785932717,2.5479176,-5.733750662,-11.13135186,2.502697098
4.857718446,2.767794534,0.000280723,-0.001995764,,,5.78841055,1.984370596,-9.46274075,-21.33042989,3.686149862
4.861275162,2.077529648,0.000272095,-0.001447819,,,5.790168306,3.030396293,-3.304235473,-2.146885773,1.630452203
4.861275162,2.077529648,0.000272095,-0.001447819,,,5.793391567,1.148456404,-14.86969435,-36.15362797,4.539932985
4.862198157,3.480632111,6.18362E-05,-0.002216075,,,5.797463342,2.168928443,-8.008574354,-17.92884267,3.272219232
4.862198157,3.480632111,6.18362E-05,-0.002216075,,,5.799175113,0.564483331,-19.33414261,-46.40982934,5.408696418
4.865557647,3.071934146,0.000215235,-0.002131801,,,5.800072296,2.247842894,-7.496651854,-16.47782363,3.098233795
4.865557647,3.071934146,0.000215235,-0.002131801,,,5.80065815,0.298160842,-21.53323198,-51.08501907,5.948438158
4.870284872,3.564857564,1.9705E-05,-0.002211484,,,5.801754707,2.39605789,-6.582522625,-13.76827578,2.79084788
4.870284872,3.564857564,1.9705E-05,-0.002211484,,,5.806035905,2.279590367,-7.284544961,-15.85032382,3.029534003
4.870284872,3.564857564,1.9705E-05,-0.002211484,,,5.807600673,1.812811265,-10.44069,-24.24666191,3.842687418
4.875,0,0,0,,,5.811498492,2.794673922,-4.378213856,-6.348925778,2.042679459
4.875,0,0,0,,,5.814218132,1.926687373,-9.766939998,-22.15175004,3.7386558
4.875,0,0,0,,,5.815633283,2.59243258,-5.431473029,-10.04855726,2.408927521
4.879367464,2.993923342,0.000236029,-0.002095433,,,5.817327366,1.571195376,-11.93923826,-28.47677537,4.078976627
4.879367464,2.993923342,0.000236029,-0.002095433,,,5.820149569,2.997151224,-3.397605777,-2.491332677,1.669192589
4.879747509,0.225255824,6.36838E-05,-0.000201628,,,5.82251252,1.852535703,-10.19068804,-23.4131611,3.80719816
4.881701491,2.45993873,0.000305459,-0.001782128,,,5.824528925,2.182347259,-7.860787539,-17.45471855,3.239433316
4.881701491,2.45993873,0.000305459,-0.001782128,,,5.825222541,2.820141196,-4.226797806,-5.750051962,1.98883502
4.884116096,2.691256117,0.000291466,-0.001940084,,,5.831552741,2.705069182,-4.799717101,-7.826733373,2.194272458
4.884495019,0.450511648,0.00011781,-0.000391472,,,5.832745249,2.354423644,-6.769530919,-14.25623936,2.867945255
4.884495019,0.450511648,0.00011781,-0.000391472,,,5.833116728,2.976099901,-3.469469616,-2.765436056,1.698577661
4.884599014,2.22997391,0.000294569,-0.001588783,,,5.833702526,2.082367872,-8.494149292,-19.18490007,3.470631924
4.890003387,0.67073569,0.000161927,-0.000565317,,,5.840386342,3.063920122,-3.061612661,-1.047399192,1.526788762
4.893177282,2.915912538,0.000254352,-0.00205546,,,5.840497938,0.989073905,-15.97831384,-38.61208239,4.759946186
4.893177282,2.915912538,0.000254352,-0.00205546,,,5.842964281,0.726458792,-17.97451681,-43.23372812,5.147409152
4.893177282,2.915912538,0.000254352,-0.00205546,,,5.845718176,0.134242674,-22.82712222,-53.65241361,6.363758719
4.893177282,2.915912538,0.000254352,-0.00205546,,,5.847581136,2.864242406,-3.970278766,-4.722989775,1.89459746
4.893177282,2.915912538,0.000254352,-0.00205546,,,5.850993175,2.931651147,-3.642526604,-3.431928796,1.768043031
4.893177282,2.915912538,0.000254352,-0.00205546,,,5.851619587,2.683977723,-4.873192228,-8.034821579,2.22295742
4.893488515,2,0.000257891,-0.001361248,,,5.853604451,2.456020778,-6.12726443,-12.21500557,2.656907618
4.893488515,2,0.000257891,-0.001361248,,,5.85386558,2.338521931,-6.821823686,-14.36153504,2.895828624
4.893488515,2,0.000257891,-0.001361248,,,5.858024636,2.016743892,-8.87460575,-20.16416791,3.629941001
4.893488515,2,0.000257891,-0.001361248,,,5.858175017,1.302948235,-13.69827618,-32.91839459,4.377063033
4.893488515,2,0.000257891,-0.001361248,,,5.859843165,1.550891491,-12.02758088,-28.49825163,4.108258174
4.895511756,0.890959733,0.000197673,-0.000727292,,,5.860068447,1.257892856,-14.01058305,-33.70271661,4.429527911
4.895511756,0.890959733,0.000197673,-0.000727292,,,5.860768109,2.095786688,-8.340606073,-18.71235057,3.436390519
4.895511756,0.890959733,0.000197673,-0.000727292,,,5.863986796,1.721924602,-10.93914356,-25.4117323,3.936182083
4.895511756,0.890959733,0.000197673,-0.000727292,,,5.867109958,1.98144618,-9.408261601,-20.72462117,3.688803387
4.895511756,0.890959733,0.000197673,-0.000727292,,,5.869362341,0.454316397,-20.09293926,-47.84687469,5.644053312
4.895511756,0.890959733,0.000197673,-0.000727292,,,5.869616298,0.40871108,-20.46421221,-48.65011398,5.736651229
4.897666844,1.92901379,0.000259838,-0.001329327,,,5.871065843,1.67642055,-11.21480027,-26.16776578,3.982221587
4.897666844,1.92901379,0.000259838,-0.001329327,,,5.872269548,1.386437872,-13.10871863,-31.3251743,4.286777156
4.901845172,1.85802758,0.000261045,-0.001296155,,,5.873994773,2.247290635,-7.339103552,-15.84882572,3.087010893
4.901845172,1.85802758,0.000261045,-0.001296155,,,5.87564248,2.505627531,-5.800312983,-11.10816679,2.551201286
4.902012924,1.10433914,0.000224639,-0.000872586,,,5.877259246,2.196022587,-7.654272919,-16.75311976,3.200946767
4.904539783,3.209604597,0.000170483,-0.002151033,,,5.877333204,2.645850004,-5.02706276,-8.507021486,2.281310275
4.904539783,3.209604597,0.000170483,-0.002151033,,,5.878395761,1.908728587,-9.810708624,-21.94055657,3.756653555
4.906023501,1.78704137,0.000261507,-0.001261736,,,5.87901841,2.274034134,-7.162236999,-15.31798156,3.027376398
4.906023501,1.78704137,0.000261507,-0.001261736,,,5.881151034,1.175097234,-14.5712687,-35.00696661,4.533907721
4.908514093,1.317718547,0.000244231,-0.001006299,,,5.882520215,1.011276583,-15.75761338,-37.89950525,4.742963108
4.908514093,1.317718547,0.000244231,-0.001006299,,,5.883652872,2.532102426,-5.63593069,-10.549339,2.496227397
4.909357961,1.516886853,0.000255798,-0.001121262,,,5.885711877,0.703286287,-18.08541268,-43.32702081,5.198993965
4.910201829,1.71605516,0.000261215,-0.001226077,,,5.888538071,0.537957675,-19.38259592,-46.2301526,5.489193829
4.910201829,1.71605516,0.000261215,-0.001226077,,,5.888753441,0.157084932,-22.52045882,-52.95253005,6.322538998
4.910201829,1.71605516,0.000261215,-0.001226077,,,5.888850737,2.758811065,-4.417457864,-6.307097061,2.063549262
4.910201829,1.71605516,0.000261215,-0.001226077,,,5.889124791,1.812811265,-10.36297296,-23.57616007,3.849054711
4.910201829,1.71605516,0.000261215,-0.001226077,,,5.889729302,0.324037449,-21.11756073,-50.00123784,5.925100448
4.910201829,1.71605516,0.000261215,-0.001226077,,,5.890154457,2.032673502,-8.687288851,-19.60458521,3.587830608
4.910201829,1.71605516,0.000261215,-0.001226077,,,5.891178686,2.5802062,-5.355390059,-9.594835408,2.3997408
4.910513746,2.614717699,0.000299752,-0.001881612,,,5.893779825,1.743018088,-10.78010643,-24.79006604,3.918039569
4.910513746,2.614717699,0.000299752,-0.001881612,,,5.899814386,2.431987366,-6.173565426,-12.24584994,2.689312132
4.910918855,2.382413626,0.000305806,-0.00171211,,,5.900720356,3.030780555,-3.091930466,-1.107240679,1.540675388
4.915167175,3.277609983,0.000144847,-0.002159044,,,5.900823549,2.321467949,-6.825621881,-14.2614859,2.919508819
4.915167175,3.277609983,0.000144847,-0.002159044,,,5.902783878,0.885150672,-16.66850449,-39.97952868,4.923935972
4.916812367,2.152444262,0.000286385,-0.001508629,,,5.903285241,0.831765791,-17.07108124,-40.92141108,5.002695807
4.9183496,3.131593792,0.000196269,-0.00212271,,,5.90514269,2.789043518,-4.234393776,-5.594779773,1.996995784
4.919574931,2.83937412,0.000270047,-0.002007007,,,5.905275,2.129104424,-8.01754429,-17.72761296,3.351357585
4.919574931,2.83937412,0.000270047,-0.002007007,,,5.906293958,1.98144618,-9.371508901,-20.39444006,3.68652447
4.92325389,3.361835435,0.000110026,-0.002166582,,,5.907119356,0.027289097,-23.5869188,-55.1107819,6.680554899
4.931340605,3.446060888,7.14925E-05,-0.002168118,,,5.911403656,1.908728587,-9.779100439,-21.66449064,3.755984466
4.932159417,3.053582988,0.000219592,-0.002090682,,,5.911697404,2.853791049,-3.90186015,-4.326001496,1.870934746
4.939427319,3.53028634,2.91161E-05,-0.0021635,,,5.912672287,2.733773185,-4.500602591,-6.554518372,2.096332587
4.940136219,2.304888523,0.000303277,-0.001639433,,,5.916110975,2.940986197,-3.475817435,-2.651946566,1.702093375
4.940136219,2.304888523,0.000303277,-0.001639433,,,5.916113798,3.005790322,-3.175327294,-1.433921558,1.576762772
4.940234686,2.534848799,0.000305748,-0.001816877,,,5.916351793,2.01592961,-8.733060984,-19.68534149,3.627361382
4.940234686,2.534848799,0.000305748,-0.001816877,,,5.920934717,2.416085653,-6.222577706,-12.35024689,2.714276741
4.944341024,0.110366897,3.28745E-05,-9.96E-05,,,5.921536769,1.652317607,-11.31477634,-26.1878064,4.012232177
4.944341024,0.110366897,3.28745E-05,-9.96E-05,,,5.922132686,1.812811265,-10.33048322,-23.30267138,3.849912408
4.945969234,2.975572184,0.000240402,-0.002054997,,,5.928683341,2.671505611,-4.793637244,-7.565030433,2.205417706
4.945969234,2.975572184,0.000240402,-0.002054997,,,5.932189906,1.494146403,-12.32240787,-28.92900974,4.180494453
4.945972581,2.762835703,0.000283391,-0.001955714,,,5.932963824,1.743018088,-10.74075253,-24.46749952,3.920264878
4.945972581,2.762835703,0.000283391,-0.001955714,,,5.938812787,2.092466945,-8.173861879,-18.10516767,3.433858585
4.94902572,2.074914614,0.000274995,-0.001426009,,,5.942219052,2.789364604,-4.162697749,-5.247538886,1.972371009
4.94902572,2.074914614,0.000274995,-0.001426009,,,5.942859616,2.742504389,-4.398589358,-6.115281601,2.061321624
4.949088534,0.335622721,9.25846E-05,-0.00029423,,,5.942929864,2.854061526,-3.841210961,-4.031952682,1.848479277
4.954216473,0.558362654,0.000142282,-0.000474815,,,5.94659287,2.586593461,-5.21275688,-8.976240408,2.360428539
4.959724841,0.778586696,0.00018269,-0.000641476,,,5.947343435,2.941256674,-3.414290294,-2.356136847,1.677316663
4.959724841,0.778586696,0.00018269,-0.000641476,,,5.947681985,2.491272772,-5.73773628,-10.727708,2.549847013
4.962272374,0.991528177,0.000213705,-0.000791431,,,5.950054524,1.069046391,-15.24685026,-36.35478003,4.684539644
4.962272374,0.991528177,0.000213705,-0.000791431,,,5.952668939,0.911507691,-16.39974472,-39.13247301,4.899315948
4.968773543,1.204907584,0.000237325,-0.00092989,,,5.952673293,2.381430836,-6.35854137,-12.70502872,2.775037498
4.96945205,2.457323695,0.000308818,-0.001751158,,,5.95319016,3.006111407,-3.100815774,-1.08137684,1.545246006
4.971141552,3.191253439,0.000174246,-0.002108172,,,5.953766246,2.19276825,-7.499358382,-16.14950184,3.192238341
4.971141552,3.191253439,0.000174246,-0.002108172,,,5.954031336,0.804257482,-17.20264271,-41.02591533,5.058060873
4.972349572,2.227358875,0.000297865,-0.001563324,,,5.954112603,2.67886062,-4.706139303,-7.196397759,2.176697219
4.972370231,2.686297285,0.000294293,-0.00190161,,,5.955437829,0.645263331,-18.41868516,-43.83671809,5.316323437
4.972370231,2.686297285,0.000294293,-0.00190161,,,5.956114428,2.767863354,-4.244387431,-5.520763904,2.004319159
4.972446061,1.411181441,0.000253014,-0.001052957,,,5.957191201,2.522701382,-5.542739171,-10.06209719,2.482109381
4.973289929,1.610349748,0.000261627,-0.001161791,,,5.957833924,0.214974621,-21.86145006,-51.44558693,6.201531057
4.973289929,1.610349748,0.000261627,-0.001161791,,,5.958206944,0.054405367,-23.20894076,-54.28105796,6.623023163
4.976589838,2.914638217,0.000254864,-0.002015013,,,5.96088095,2.078362192,-8.211115929,-18.17205624,3.464531389
4.976589838,2.914638217,0.000254864,-0.002015013,,,5.969047808,1.926687373,-9.619470541,-20.85484094,3.734331176
4.97955294,2,0.000260789,-0.001343985,,,5.970332804,1.724934094,-10.81310124,-24.48371701,3.939904697
4.97955294,2,0.000260789,-0.001343985,,,5.971823313,1.679737665,-11.09083782,-25.28360139,3.987113052
4.981768945,3.259258825,0.000148246,-0.002115348,,,5.972022133,2.59394847,-5.122773641,-8.609488325,2.332570016
4.983731269,1.92901379,0.000262863,-0.001312758,,,5.972754139,2.472395692,-5.793104413,-10.85105195,2.577118594
4.984951369,3.113242635,0.00020022,-0.002080591,,,5.972958781,2.243081057,-7.143683887,-15.06265288,3.071533007
4.987909597,1.85802758,0.000264178,-0.001280273,,,5.977330549,2.318213612,-6.679368719,-13.64745278,2.902384448
4.992087926,1.78704137,0.000264729,-0.001246534,,,5.977342196,1.852535703,-10.04005341,-22.12578198,3.808563118
4.992087926,1.78704137,0.000264729,-0.001246534,,,5.977982417,2.269824557,-6.969205826,-14.52894192,3.009580269
4.992396337,3.327264212,0.000119687,-0.002118453,,,5.981167568,1.984370596,-9.282136651,-19.7063791,3.675024525
4.992396337,3.327264212,0.000119687,-0.002118453,,,5.98737853,2.531432586,-5.433481934,-9.628424224,2.449677812
4.998669414,2.379798592,0.000309056,-0.001682764,,,5.989640107,2.013418816,-8.562230628,-19.1063533,3.623236091
4.998761186,3.035231831,0.000223631,-0.002049295,,,5.9940828,2.865511128,-3.686531706,-3.34319948,1.788814005
4.998761186,3.035231831,0.000223631,-0.002049295,,,5.996613892,2.68035004,-4.615579654,-6.779956555,2.148142678
4.998767881,2.609758867,0.000302657,-0.001844726,,,5.996808394,1.552145634,-11.8738588,-27.3677901,4.124954501
4.998767881,2.609758867,0.000302657,-0.001844726,,,5.99749484,2.932919869,-3.355405722,-2.04551758,1.65371971
4.998767881,2.609758867,0.000302657,-0.001844726,,,5.998979395,2.41276591,-6.078454408,-11.71603803,2.689981756
4.998767881,2.609758867,0.000302657,-0.001844726,,,6.000119475,2.726928948,-4.367684811,-5.879620729,2.054694242
4.998767881,2.609758867,0.000302657,-0.001844726,,,6.000357691,1.812811265,-10.25099495,-22.65023061,3.848070942
4.998767881,2.609758867,0.000302657,-0.001844726,,,6.00153761,2.174817938,-7.499488939,-16.06144069,3.22167558
5.000483052,3.411489664,8.11469E-05,-0.002119967,,,6.003616211,2.486956639,-5.647573991,-10.30471359,2.532563835
5.002987488,2.8380998,0.000271004,-0.001968273,,,6.003847904,0.884976002,-16.52331296,-39.21178542,4.949188104
5.004562925,2.149829227,0.000289316,-0.001484734,,,6.004708938,0.831110674,-16.92356414,-40.16336645,5.029038638
5.004562925,2.149829227,0.000289316,-0.001484734,,,6.006536215,1.387667305,-12.94949095,-30.23236841,4.309384884
5.008569766,3.495715117,3.86449E-05,-0.002115331,,,6.007611502,2.821720707,-3.875239631,-4.038490027,1.864345728
5.010416667,0,0,0,,,6.008731386,2.514564923,-5.483250714,-9.747797736,2.473164141
5.013682048,0.220733794,6.4166E-05,-0.000195194,,,6.008789829,2.062943456,-8.191230075,-18.04055243,3.493181176
5.013682048,0.220733794,6.4166E-05,-0.000195194,,,6.009420921,0.027116271,-23.29425708,-54.40842242,6.717501652
5.018429558,0.445989618,0.00011981,-0.000382581,,,6.010459374,2.614706237,-4.934861668,-7.874599111,2.269713211
5.018429558,0.445989618,0.00011981,-0.000382581,,,6.01128509,2.748290884,-4.236708308,-5.378042597,2.005421256
5.023937926,0.66621366,0.000165085,-0.000553895,,,6.015417701,1.176326668,-14.39753863,-33.93346007,4.561809997
5.023937926,0.66621366,0.000165085,-0.000553895,,,6.015505689,2.977679412,-3.108164998,-1.034662964,1.549450756
5.027153702,0.884678167,0.000201366,-0.000712181,,,6.019316716,2.803608441,-3.942318161,-4.269301183,1.891326066
5.027153702,0.884678167,0.000201366,-0.000712181,,,6.019485444,1.012530726,-15.56485597,-36.82028421,4.773957295
5.027886777,2.302273489,0.000306348,-0.001611726,,,6.023605774,2.160713185,-7.534799091,-16.12697973,3.248962757
5.027886777,2.302273489,0.000306348,-0.001611726,,,6.024143449,0.702581695,-17.86286201,-42.30244887,5.235600176
5.027985244,2.532233764,0.000308512,-0.001783394,,,6.024242191,0.537266965,-19.13418684,-45.24348484,5.526387863
5.027985244,2.532233764,0.000308512,-0.001783394,,,6.024977048,2.42503179,-5.952922219,-11.2570647,2.652207032
5.029032993,1.092096622,0.000228142,-0.00085157,,,6.025433422,0.323346739,-20.8203911,-49.0392498,5.965403377
5.029032993,1.092096622,0.000228142,-0.00085157,,,6.027185013,0.15638034,-22.17024937,-51.99270184,6.368350213
5.02938179,2.974297864,0.00023982,-0.002012103,,,6.030874265,2.33099261,-6.48547883,-12.93826164,2.853850612
5.029385137,2.761561382,0.000284713,-0.001918699,,,6.031836647,1.797577634,-10.30872095,-22.66150111,3.86196274
5.035090145,2.074914614,0.000277932,-0.001406602,,,6.031852818,1.304538542,-13.48556008,-31.51444354,4.409258824
5.035534161,1.305476029,0.000248333,-0.00098307,,,6.032152761,2.57505365,-5.104326235,-8.413829457,2.33698976
5.035534161,1.305476029,0.000248333,-0.00098307,,,6.033746248,1.259483163,-13.79396282,-32.30409523,4.463226136
5.035849676,1.703455159,0.000265792,-0.001198561,,,6.039168873,1.575243797,-11.6788512,-26.60644044,4.102035313
5.035849676,1.703455159,0.000265792,-0.001198561,,,6.044899529,0.453422944,-19.74867038,-46.5828015,5.693296327
5.036378029,1.504644335,0.000260268,-0.001095901,,,6.045153485,0.407817627,-20.10654052,-47.39284568,5.786815083
5.036378029,1.504644335,0.000260268,-0.001095901,,,6.045731581,1.926687373,-9.54067049,-20.20413896,3.723784253
5.037743321,3.172902281,0.00017774,-0.002065047,,,6.046073739,2.237378865,-7.010383354,-14.52491593,3.060504157
5.037743321,3.172902281,0.00017774,-0.002065047,,,6.048988285,2.780552176,-3.999222757,-4.426526935,1.915285505
5.048370714,3.240907668,0.000151405,-0.002071386,,,6.050140022,2.560844635,-5.144595934,-8.514229723,2.355617918
5.051553138,3.094891477,0.000203874,-0.002038242,,,6.052037348,2.269126339,-6.805312278,-13.88892293,2.984949234
5.051553138,3.094891477,0.000203874,-0.002038242,,,6.055559795,2.661827497,-4.595332861,-6.584879489,2.147432588
5.055782787,2.685022965,0.000295903,-0.001866321,,,6.056871918,2.34325849,-6.355814053,-12.48096237,2.815591459
5.055782787,2.685022965,0.000295903,-0.001866321,,,6.057281074,2.126607282,-7.666045749,-16.45755232,3.321809002
5.057202608,2.454708661,0.000311573,-0.001719372,,,6.060902086,2.901216246,-3.380896328,-2.050828788,1.665561841
5.057202608,2.454708661,0.000311573,-0.001719372,,,6.062597682,0.990180909,-15.66845014,-36.88213563,4.811802503
5.058998106,3.308913054,0.000122436,-0.002073636,,,6.066833349,0.72520234,-17.62179583,-41.57533736,5.206470771
5.060002394,2.913363897,0.000254627,-0.001973408,,,6.070326745,0.133392496,-22.24505998,-52.09513247,6.438572878
5.060002394,2.913363897,0.000254627,-0.001973408,,,6.072271075,2.220634974,-7.050520223,-14.60170516,3.090057446
5.060100131,2.224743841,0.000300672,-0.001537244,,,6.072753852,2.487715014,-5.49886752,-9.666715433,2.495061126
5.060100131,2.224743841,0.000300672,-0.001537244,,,6.074620124,2.438966229,-5.767651255,-10.55335274,2.597955306
5.065617365,2,0.000263372,-0.001326182,,,6.076367698,2.702969504,-4.339705616,-5.625371233,2.050718588
5.065617365,2,0.000263372,-0.001326182,,,6.077062783,2.510971736,-5.361261084,-9.196081467,2.443670842
5.069625499,3.376918441,9.07566E-05,-0.002071726,,,6.080360238,1.984370596,-9.179281412,-18.85739984,3.655186391
5.069625499,3.376918441,9.07566E-05,-0.002071726,,,6.08289942,2.283687286,-6.647659661,-13.34753367,2.938973304
5.069795694,1.92901379,0.000265581,-0.001295674,,,6.085473602,2.062943456,-7.996457301,-17.3775196,3.473241146
5.073974023,1.85802758,0.000267014,-0.0012639,,,6.087533312,2.72433144,-4.207463143,-5.122868043,1.999851647
5.073974023,1.85802758,0.000267014,-0.0012639,,,6.088821331,1.908728587,-9.597116123,-20.16328523,3.734994795
5.077712214,3.461143893,4.82424E-05,-0.002067083,,,6.088832777,2.013418816,-8.303941688,-18.25397386,3.600798818
5.079757691,0.110366897,3.37324E-05,-9.84E-05,,,6.090491453,2.636006357,-4.660213842,-6.746220099,2.176835167
5.082173743,3.03395751,0.000221855,-0.002003908,,,6.092977487,1.414411855,-12.67062264,-29.05324806,4.286615624
5.083023073,0.331100691,9.37535E-05,-0.000286554,,,6.094044172,2.867906305,-3.476027899,-2.368665044,1.705801479
5.083023073,0.331100691,9.37535E-05,-0.000286554,,,6.09483197,2.548056208,-5.121459629,-8.345332491,2.355591477
5.085608549,2.605528973,0.000304803,-0.001808025,,,6.097524788,2.936669862,-3.135973997,-1.041275993,1.563028105
5.085608549,2.605528973,0.000304803,-0.001808025,,,6.09927738,2.375749005,-6.07351908,-11.50180801,2.723536562
5.086400044,2.836825479,0.000271237,-0.001928467,,,6.101830778,2.160713185,-7.345166956,-15.44257888,3.223105646
5.086419972,2.377183557,0.000311733,-0.001652688,,,6.103070876,2.23642743,-6.882561702,-14.03927007,3.040620059
5.086419972,2.377183557,0.000311733,-0.001652688,,,6.104034596,1.151300854,-14.46265811,-33.67672477,4.605700267
5.088151012,0.553840624,0.000144739,-0.000464585,,,6.105749386,2.84979404,-3.541222663,-2.600338134,1.733015722
5.088151012,0.553840624,0.000144739,-0.000464585,,,6.105961119,1.723851056,-10.67385619,-23.3725679,3.935903307
5.090627351,2.149829227,0.000292134,-0.001463082,,,6.107216696,1.685778398,-10.90675052,-24.05051162,3.978283563
5.091366788,0.772305131,0.000185755,-0.000627492,,,6.107735612,2.267732269,-6.684823269,-13.42113809,2.965194561
5.093914321,0.985246611,0.000217514,-0.000774919,,,6.107934187,2.762029632,-3.974528634,-4.228061687,1.90880404
5.095793611,1.192665066,0.000240901,-0.000907611,,,6.108478714,2.621797342,-4.698316095,-6.846455642,2.194068354
5.095793611,1.192665066,0.000240901,-0.000907611,,,6.113143873,0.562885285,-18.77179494,-44.12158692,5.493952218
5.098937776,1.597749746,0.000265857,-0.001135087,,,6.11462691,0.296562797,-20.8303278,-48.86795615,6.04272823
5.099466129,1.398938923,0.000257052,-0.001028444,,,6.11580757,2.816257294,-3.68674261,-3.137155884,1.792961872
5.099466129,1.398938923,0.000257052,-0.001028444,,,6.120300287,1.893494956,-9.650059591,-20.17175427,3.745200417
5.104345091,3.154551123,0.000180961,-0.002021736,,,6.125000097,1.781079521,-10.30589503,-22.1753064,3.869749345
5.104345091,3.154551123,0.000180961,-0.002021736,,,6.127775976,2.174016466,-7.200343177,-14.96994286,3.180630562
5.104345091,3.154551123,0.000180961,-0.002021736,,,6.129801552,2.341453918,-6.202435177,-11.86276294,2.785258832
5.104345091,3.154551123,0.000180961,-0.002021736,,,6.130889617,1.602492632,-11.40219068,-25.35702891,4.071024356
5.104345091,3.154551123,0.000180961,-0.002021736,,,6.132394915,2.6829468,-4.329315388,-5.483606368,2.051862627
5.112794347,2.973023543,0.00023846,-0.001968067,,,6.13428381,0.880759807,-16.36412906,-38.27672531,4.976358663
5.112797694,2.760287062,0.000285338,-0.001880695,,,6.13500913,0.835384624,-16.69563094,-39.08274658,5.043756811
5.112797694,2.760287062,0.000285338,-0.001880695,,,6.135337966,1.437510017,-12.467591,-28.29181348,4.261338497
5.114825913,2.528003869,0.000310689,-0.001748375,,,6.138298625,2.078362192,-7.763899509,-16.63534502,3.416550621
5.114972483,3.22255651,0.000154323,-0.002027239,,,6.13993239,2.595177468,-4.774194944,-7.055078508,2.228345844
5.114972483,3.22255651,0.000154323,-0.002027239,,,6.140689273,0.022842258,-22.94647628,-53.5668902,6.760773806
5.115637336,2.299658454,0.000308881,-0.001583367,,,6.145649726,2.708305765,-4.171386179,-4.886289251,1.990129173
5.115637336,2.299658454,0.000308881,-0.001583367,,,6.14611286,2.437197212,-5.622132438,-9.940921516,2.562651856
5.115637336,2.299658454,0.000308881,-0.001583367,,,6.147146835,1.128951037,-14.56502684,-33.73254742,4.638448187
5.115637336,2.299658454,0.000308881,-0.001583367,,,6.150723113,2.328013698,-6.23233,-11.92416096,2.80533981
5.115637336,2.299658454,0.000308881,-0.001583367,,,6.152280499,0.964210414,-15.73250985,-36.64211283,4.859117753
5.115637336,2.299658454,0.000308881,-0.001583367,,,6.152863803,1.98144618,-9.115695467,-18.2855954,3.638219246
5.117735773,1.774441369,0.000268931,-0.001217708,,,6.15374777,2.666079138,-4.372788708,-5.602527856,2.071260399
5.121154571,2.074914614,0.000280493,-0.001386615,,,6.155682746,0.751369676,-17.2834089,-40.42597855,5.176168033
5.125599876,3.290561897,0.000124979,-0.002028639,,,6.155695566,2.760754178,-3.883685543,-3.809357057,1.874884051
5.125599876,3.290561897,0.000124979,-0.002028639,,,6.155833773,0.58550593,-18.52249463,-43.39423451,5.457596807
5.134965695,3.093617157,0.000200808,-0.00199033,,,6.157070513,2.904171231,-3.17029131,-1.097784247,1.579045304
5.134965695,3.093617157,0.000200808,-0.00199033,,,6.157768642,0.273574953,-20.90999109,-48.96393618,6.101637918
5.136227268,3.358567283,9.28549E-05,-0.002025868,,,6.160198247,0.107145863,-22.21439982,-51.92326342,6.524396103
5.136227268,3.358567283,9.28549E-05,-0.002025868,,,6.160590705,1.309943553,-13.29456701,-30.37772823,4.413938529
5.142623456,2.68079307,0.000297249,-0.001827076,,,6.162838414,1.256457867,-13.65784305,-31.31981931,4.479345877
5.143414951,2.912089576,0.00025363,-0.001930738,,,6.162921638,2.01592961,-8.091867711,-17.56642389,3.571355763
5.143414951,2.912089576,0.00025363,-0.001930738,,,6.164243823,2.091665472,-7.614516871,-16.16420221,3.37282938
5.144043277,2.450478766,0.000313711,-0.001686044,,,6.165231764,2.485426739,-5.313276497,-8.870503947,2.445808126
5.145833333,0,0,0,,,6.165880014,2.83089922,-3.511769424,-2.395969277,1.72272439
5.146164556,2.224743841,0.000303215,-0.001513252,,,6.166324705,2.54628719,-4.980079008,-7.726068029,2.314073664
5.146164556,2.224743841,0.000303215,-0.001513252,,,6.169540696,2.50868346,-5.176805298,-8.398005608,2.392710267
5.146854661,3.42657267,5.78606E-05,-0.002018852,,,6.170965888,2.882669981,-3.246380274,-1.373392586,1.611677719
5.146854661,3.42657267,5.78606E-05,-0.002018852,,,6.175118583,2.238400679,-6.699157087,-13.36385917,3.003780882
5.146854661,3.42657267,5.78606E-05,-0.002018852,,,6.175265633,0.457004786,-19.45897775,-45.54942009,5.704125121
5.149098715,0.220733794,6.57227E-05,-0.000192562,,,6.175567108,0.402866263,-19.87159705,-46.51733463,5.815438502
5.151681791,2,0.000265628,-0.001307862,,,6.177861484,2.709493399,-4.098854096,-4.566141902,1.963462787
5.151681791,2,0.000265628,-0.001307862,,,6.178981854,2.189008795,-6.984100803,-14.24162132,3.122072651
5.152364097,0.441467588,0.000121526,-0.000373575,,,6.179048073,2.264771312,-6.534398287,-12.84131905,2.938822254
5.152364097,0.441467588,0.000121526,-0.000373575,,,6.181408348,2.61999277,-4.555977662,-6.210464673,2.147590533
5.152364097,0.441467588,0.000121526,-0.000373575,,,6.182495189,2.6836918,-4.221911232,-5.00723826,2.01352908
5.152364097,0.441467588,0.000121526,-0.000373575,,,6.182830171,2.761754619,-3.822763696,-3.538757587,1.851513501
5.152364097,0.441467588,0.000121526,-0.000373575,,,6.190232783,1.963362186,-9.173865887,-18.29353097,3.646970852
5.152364097,0.441467588,0.000121526,-0.000373575,,,6.190384594,2.420938943,-5.614733618,-9.842526503,2.572620434
5.155579873,0.659932094,0.000167483,-0.000541079,,,6.193014619,2.831899661,-3.450803803,-2.124346636,1.69820341
5.155860119,1.92901379,0.000267982,-0.001278096,,,6.193389482,1.855231192,-9.788872587,-20.24387771,3.771728375
5.155860119,1.92901379,0.000267982,-0.001278096,,,6.193721439,2.031722066,-7.910595224,-17.0084225,3.518245072
5.158795649,0.878396601,0.000204619,-0.000696762,,,6.197413856,2.312705156,-6.212414199,-11.78933649,2.816207049
5.158795649,0.878396601,0.000204619,-0.000696762,,,6.203177646,2.883857615,-3.173630209,-1.05018343,1.581615217
5.160674939,1.085815056,0.000231976,-0.000833579,,,6.205235926,1.496013535,-12.00082026,-26.66072467,4.191285414
5.161497523,1.690855157,0.000269781,-0.001170452,,,6.205624655,2.634829359,-4.427160678,-5.709661561,2.098740583
5.161497523,1.690855157,0.000269781,-0.001170452,,,6.207174382,2.125344968,-7.298063468,-15.16698791,3.268971672
5.162025876,1.492044334,0.000264107,-0.001070063,,,6.210877249,1.33736361,-13.04764245,-29.47392115,4.3815919
5.162554229,1.293233511,0.000251899,-0.000959457,,,6.211306155,2.407498723,-5.642673781,-9.903164549,2.59016688
5.162554229,1.293233511,0.000251899,-0.000959457,,,6.214017379,1.229926178,-13.77695258,-31.38110892,4.514093787
5.162554229,1.293233511,0.000251899,-0.000959457,,,6.215547568,2.556751788,-4.818364026,-7.079989461,2.258133688
5.162554229,1.293233511,0.000251899,-0.000959457,,,6.217643677,1.071490691,-14.87811094,-34.19871583,4.717865526
5.162554229,1.293233511,0.000251899,-0.000959457,,,6.219186532,2.015792456,-7.942063026,-17.07916944,3.551059079
5.162554229,1.293233511,0.000251899,-0.000959457,,,6.224487108,0.64337331,-17.96895755,-41.83213775,5.36005901
5.165586299,3.03268319,0.000219279,-0.001957406,,,6.225755711,1.981916006,-9.028608745,-17.64476045,3.612688941
5.165586299,3.03268319,0.000219279,-0.001957406,,,6.225943235,0.483857977,-19.15534629,-44.68635729,5.653693533
5.169812601,2.835551159,0.000270738,-0.001887674,,,6.226781085,0.375577166,-19.97036522,-46.62547921,5.87646489
5.169812601,2.835551159,0.000270738,-0.001887674,,,6.227797745,0.215517982,-21.19031433,-49.4934362,6.247172558
5.172449218,2.601299078,0.000306285,-0.00177058,,,6.233494733,2.481268521,-5.186166181,-8.326336151,2.410798348
5.172449218,2.601299078,0.000306285,-0.00177058,,,6.2352141,2.766722387,-3.688809625,-2.958532032,1.79888783
5.173260641,2.372953663,0.000313763,-0.001621058,,,6.238609909,2.508876805,-5.025173435,-7.763866579,2.346348248
5.173260641,2.372953663,0.000313763,-0.001621058,,,6.239763875,2.571588377,-4.687154905,-6.58007077,2.208829868
5.176691776,2.149829227,0.000294515,-0.001440815,,,6.240345586,2.09110631,-7.420955298,-15.5064043,3.342530554
5.176691776,2.149829227,0.000294515,-0.001440815,,,6.243087483,2.820950048,-3.400888501,-1.863789662,1.6788659
5.182490231,3.188797636,0.000163104,-0.00198022,,,6.244249336,2.374153363,-5.754092525,-10.22576689,2.646163492
5.182490231,3.188797636,0.000163104,-0.00198022,,,6.245991929,2.73017374,-3.851133654,-3.546051607,1.866729008
5.193117624,3.256803023,0.000134006,-0.001981619,,,6.249895279,2.708438937,-3.953634843,-3.918547566,1.909343384
5.196206903,2.971749223,0.00023632,-0.001922988,,,6.253523486,2.664771251,-4.170204087,-4.705532325,1.998888726
5.196206903,2.971749223,0.00023632,-0.001922988,,,6.25358422,2.18846065,-6.802178428,-13.58983256,3.087269504
5.199621869,1.845427578,0.000270779,-0.001233722,,,6.258330926,2.465313504,-5.217758805,-8.397780494,2.429582592
5.199638363,2.756057167,0.000285746,-0.001838832,,,6.261796922,2.077687494,-7.446502572,-15.56525353,3.367953733
5.200114608,2.295971449,0.000310723,-0.001554592,,,6.263756284,1.310958726,-13.16143248,-29.51552519,4.413121588
5.200114608,2.295971449,0.000310723,-0.001554592,,,6.26418867,1.895410387,-9.471635959,-18.89938701,3.703142212
5.201666582,2.523773975,0.000312228,-0.00171269,,,6.264208004,2.85563634,-3.18460039,-1.012399597,1.587872871
5.203745016,3.324808409,0.000102076,-0.001978853,,,6.264648704,1.25700698,-13.52761817,-30.48066835,4.480216549
5.207218996,2.074914614,0.000282665,-0.001366075,,,6.266053515,1.782957214,-10.13001536,-20.9407558,3.839394515
5.207218996,2.074914614,0.000282665,-0.001366075,,,6.267357327,2.526489467,-4.867216473,-7.171173014,2.287283791
5.213110836,3.127863669,0.000184428,-0.001951403,,,6.271618893,2.237691637,-6.468590508,-12.5162819,2.955337693
5.214372409,3.392813796,6.72271E-05,-0.001971855,,,6.271943034,1.604370325,-11.22443723,-24.14105329,4.054839356
5.215174358,0.110366897,3.45221E-05,-9.70E-05,,,6.272016222,2.312157011,-6.039292086,-11.12896555,2.774717568
5.218439739,0.331100691,9.5858E-05,-0.000282469,,,6.275548382,2.26406227,-6.30627228,-11.99138895,2.888544525
5.218439739,0.331100691,9.5858E-05,-0.000282469,,,6.277260581,0.456840134,-19.25539403,-44.7846387,5.707900529
5.219792958,0.547559058,0.000146434,-0.000452971,,,6.277796957,0.402697846,-19.65770919,-45.75589547,5.819179362
5.219792958,0.547559058,0.000146434,-0.000452971,,,6.279226349,1.439425448,-12.28297858,-27.06795938,4.254485045
5.223008734,0.766023565,0.0001884,-0.000613276,,,6.279915801,2.615880974,-4.367475202,-5.379649724,2.083025563
5.224585623,1.585149745,0.000269502,-0.001107883,,,6.285509843,1.128966387,-14.38573989,-32.61754325,4.643224323
5.225113976,1.386338922,0.00026046,-0.001003523,,,6.287407919,2.406939561,-5.471945598,-9.223168435,2.54267129
5.225113976,1.386338922,0.00026046,-0.001003523,,,6.287917407,0.964225462,-15.5429587,-35.56502562,4.865200095
5.225556267,0.978965046,0.000220841,-0.000758055,,,6.288417777,1.726279905,-10.44567262,-21.78369254,3.90310743
5.226827507,2.910815256,0.000251874,-0.001887094,,,6.288461429,2.48083823,-5.065825217,-7.832291491,2.373747644
5.226827507,2.910815256,0.000251874,-0.001887094,,,6.289513714,2.013303281,-7.766805973,-16.51015812,3.528106649
5.226827507,2.910815256,0.000251874,-0.001887094,,,6.289673355,1.688207247,-10.67812044,-22.46675271,3.94947418
5.226827507,2.910815256,0.000251874,-0.001887094,,,6.291319653,0.751384724,-17.06709132,-39.3708272,5.182004164
5.226827507,2.910815256,0.000251874,-0.001887094,,,6.292372655,2.51440591,-4.876477388,-7.168018431,2.29586186
5.226827507,2.910815256,0.000251874,-0.001887094,,,6.294112545,1.911039791,-9.34518253,-18.35325248,3.673249115
5.227435557,1.186383501,0.000244669,-0.000888066,,,6.294196781,0.585521281,-18.27256113,-42.33688139,5.4627581
5.227435557,1.186383501,0.000244669,-0.000888066,,,6.295047472,1.984766369,-8.928407622,-16.98812319,3.581079008
5.229464125,2.676563175,0.000297898,-0.001787086,,,6.296773953,0.107145863,-21.83962078,-50.94248787,6.531380869
5.230641828,2.221056836,0.000304841,-0.001486083,,,6.297089318,0.273574953,-20.5812993,-47.9394555,6.10660388
5.230883945,2.446248871,0.000315239,-0.001652123,,,6.300378049,2.172748262,-6.776752567,-13.46457709,3.102053374
5.230883945,2.446248871,0.000315239,-0.001652123,,,6.305004795,2.789991392,-3.425010395,-1.869875579,1.691129726
5.237746216,2,0.000267547,-0.001289049,,,6.307795863,2.062401513,-7.417110388,-15.44251029,3.386629962
5.237746216,2,0.000267547,-0.001289049,,,6.309734057,0.880779272,-16.10702623,-36.89440075,4.984250653
5.237746216,2,0.000267547,-0.001289049,,,6.310459377,0.835404089,-16.43118658,-37.70641965,5.051643576
5.237746216,2,0.000267547,-0.001289049,,,6.31095726,2.595325056,-4.407452608,-5.479042502,2.103455417
5.237746216,2,0.000267547,-0.001289049,,,6.312789312,2.420017311,-5.341446458,-8.747810297,2.495133635
5.237746216,2,0.000267547,-0.001289049,,,6.317353882,0.022842258,-22.42283361,-52.31471006,6.772349729
5.243383619,1.761841367,0.000272517,-0.001188294,,,6.321829385,2.159329445,-6.800826674,-13.52250407,3.124566231
5.24373144,3.066929702,0.000204338,-0.001921068,,,6.323314181,2.688040257,-3.901592354,-3.620789659,1.892813067
5.256653269,2.831321264,0.000270077,-0.001843133,,,6.323325186,2.326745495,-5.834061131,-10.39407586,2.707525994
5.256653269,2.831321264,0.000270077,-0.001843133,,,6.323770696,1.41718245,-12.37516572,-27.09925497,4.27768665
5.257737913,2.369266658,0.000315194,-0.001590088,,,6.32816076,1.151778767,-14.1717163,-31.85932171,4.612209205
5.259289887,2.597069183,0.000307095,-0.001732466,,,6.332029722,2.585146084,-4.414541244,-5.475727742,2.109155881
5.259289887,2.597069183,0.000307095,-0.001732466,,,6.333752985,1.928543819,-9.195437993,-17.68641537,3.635424502
5.260635372,3.223044148,0.000142822,-0.001934755,,,6.336268204,2.760272869,-3.50771102,-2.138747755,1.727329451
5.260635372,3.223044148,0.000142822,-0.001934755,,,6.33742559,0.562761936,-18.36030906,-42.41495902,5.502311372
5.261169048,2.146142222,0.000295873,-0.001415254,,,6.34006417,0.296420926,-20.31058102,-47.20812406,6.050801008
5.271262764,3.291049535,0.000111154,-0.001932004,,,6.340171553,2.738538066,-3.608963826,-2.512297354,1.770399617
5.274352044,3.005995735,0.000222784,-0.001889235,,,6.34294814,2.234664918,-6.30897646,-11.9332775,2.920792387
5.274352044,3.005995735,0.000222784,-0.001889235,,,6.34429983,2.815590426,-3.213738057,-1.019697199,1.602465668
5.28125,0,0,0,,,6.347612876,2.265969757,-6.118411246,-11.30813689,2.839917387
5.281507966,1.916413788,0.000271252,-0.00124653,,,6.34870658,2.339823245,-5.699975955,-9.920103639,2.659181309
5.281507966,1.916413788,0.000271252,-0.00124653,,,6.354205701,2.125517194,-6.916019631,-13.86202371,3.194390877
5.281890157,3.359054922,7.65253E-05,-0.001925032,,,6.358181689,1.801921915,-9.901692496,-19.80173507,3.788305413
5.284515382,0.220733794,6.71411E-05,-0.000189829,,,6.359526502,2.483869181,-4.888605834,-7.124332286,2.314451663
5.284515382,0.220733794,6.71411E-05,-0.000189829,,,6.362821248,2.51214599,-4.730471883,-6.563242861,2.247691302
5.28459188,2.292284444,0.000312051,-0.001525361,,,6.363305485,2.435496983,-5.140175632,-7.996837296,2.422912671
5.28459188,2.292284444,0.000312051,-0.001525361,,,6.365513915,1.579588077,-11.26623893,-23.80029739,4.068896515
5.286329748,0.439237966,0.000123486,-0.000366264,,,6.367094314,2.688665167,-3.804052877,-3.201951002,1.854603343
5.286329748,0.439237966,0.000123486,-0.000366264,,,6.368413233,2.218735308,-6.336289943,-12.00133354,2.945040036
5.286479031,2.751827272,0.000285431,-0.001796236,,,6.376410938,0.990215724,-15.23609669,-34.38544105,4.825517877
5.286479031,2.751827272,0.000285431,-0.001796236,,,6.37774338,2.281494484,-5.955968761,-10.74672547,2.781719491
5.287145369,1.678255155,0.00027316,-0.001141826,,,6.378760105,2.568134616,-4.399957367,-5.363839829,2.10927614
5.287145369,1.678255155,0.00027316,-0.001141826,,,6.380646604,0.725237156,-17.11223393,-39.14203607,5.219543514
5.287221819,0.653650529,0.000169489,-0.000528103,,,6.381376403,2.062401513,-7.218435314,-14.79244138,3.348019859
5.287221819,0.653650529,0.000169489,-0.000528103,,,6.384692261,2.013303281,-7.504596068,-15.67364365,3.481210585
5.287673723,1.479444332,0.000267365,-0.001043813,,,6.38631203,0.133392496,-21.39912971,-49.81850506,6.453240367
5.287673723,1.479444332,0.000267365,-0.001043813,,,6.388105563,1.817551318,-9.769942431,-19.25606623,3.75741606
5.28850725,2.51954408,0.000313124,-0.001676407,,,6.388166776,2.678486195,-3.810168804,-3.197728138,1.85862009
5.28850725,2.51954408,0.000313124,-0.001676407,,,6.390226019,1.984766369,-8.805717931,-16.15360561,3.535647549
5.290437595,0.872115035,0.000207407,-0.000681067,,,6.391072372,2.373500631,-5.412400616,-8.904979879,2.548527496
5.290437595,0.872115035,0.000207407,-0.000681067,,,6.395464679,1.307617031,-13.01884641,-28.48684074,4.407089194
5.291255976,3.162110182,0.000165709,-0.001908608,,,6.396216438,1.262169052,-13.32609076,-29.30409467,4.464845717
5.291696268,2.071227609,0.000283708,-0.001342122,,,6.396888784,2.159329445,-6.60593031,-12.85265741,3.08027665
5.291696268,2.071227609,0.000283708,-0.001342122,,,6.39898989,2.234801711,-6.166946374,-11.42674825,2.88448908
5.291985621,1.289608275,0.000255658,-0.000940092,,,6.402267248,2.784312814,-3.245931286,-1.068310883,1.617840766
5.291985621,1.289608275,0.000255658,-0.000940092,,,6.4036553,2.266256048,-5.977246713,-10.79725721,2.802059094
5.292316885,1.07953349,0.000235284,-0.000815197,,,6.406417017,1.856269841,-9.517632048,-18.3848544,3.699136076
5.292316885,1.07953349,0.000235284,-0.000815197,,,6.406900953,2.758511215,-3.36516118,-1.512390141,1.669165014
5.3151191,2.217369831,0.000305988,-0.001458515,,,6.407333525,1.928543819,-9.099156896,-17.04351403,3.602253953
5.315361218,2.442561867,0.00031613,-0.00161889,,,6.408278105,0.452597628,-19.02336483,-43.86591064,5.706660761
5.316304793,2.672333281,0.000297847,-0.001746435,,,6.408729938,0.406989139,-19.35155373,-44.68977694,5.799976934
5.316304793,2.672333281,0.000297847,-0.001746435,,,6.410058262,1.557345078,-11.3521984,-23.82752279,4.087653399
5.320327791,2,0.000269064,-0.001270555,,,6.414179472,1.39167861,-12.4311798,-26.80578083,4.297831104
5.320327791,2,0.000269064,-0.001270555,,,6.417705737,1.178496404,-13.87094334,-30.64221779,4.570235754
5.320613567,2.908132205,0.000249332,-0.001836591,,,6.419061854,1.013028104,-15.01738506,-33.62760542,4.790298633
5.320613567,2.908132205,0.000249332,-0.001836591,,,6.422158485,2.640293899,-3.930831469,-3.601847562,1.912889865
5.32187658,3.101176215,0.000187141,-0.001880937,,,6.422646009,2.172863495,-6.460300091,-12.36978013,3.02848002
5.32187658,3.101176215,0.000187141,-0.001880937,,,6.423768729,2.340432728,-5.514877494,-9.226761736,2.604327868
5.325269716,1.832827577,0.000273905,-0.001202968,,,6.423875413,0.702477811,-17.20454434,-39.21430208,5.251982932
5.325269716,1.832827577,0.000273905,-0.001202968,,,6.423877507,1.730971647,-10.24468763,-20.53607164,3.858503294
5.338780513,3.257290661,0.000120052,-0.001885389,,,6.425368015,1.685775217,-10.52120875,-21.35131796,3.917461552
5.338780513,3.257290661,0.000120052,-0.001885389,,,6.427259877,0.536616369,-18.38300022,-42.19602338,5.541361133
5.342215185,2.365579653,0.000316075,-0.001558654,,,6.429286882,0.156238469,-21.11764129,-49.08972318,6.385928021
5.34564632,2.142455217,0.000296791,-0.001389349,,,6.429379283,0.322681266,-19.91481469,-46.06452241,5.979844609
5.34564632,2.142455217,0.000296791,-0.001389349,,,6.431916281,2.746427657,-3.371894009,-1.506816885,1.67288406
5.346130555,2.592839289,0.000307233,-0.001693761,,,6.432034869,2.077687494,-6.989677884,-14.05890295,3.276938057
5.346130555,2.592839289,0.000307233,-0.001693761,,,6.436888721,2.436094458,-4.964791215,-7.311370213,2.36488037
5.346130555,2.592839289,0.000307233,-0.001693761,,,6.4399763,0.885024388,-15.88656069,-35.77763869,4.968502411
5.346130555,2.592839289,0.000307233,-0.001693761,,,6.440837334,0.831159059,-16.26527714,-36.74724129,5.048065992
5.346130555,2.592839289,0.000307233,-0.001693761,,,6.445596465,2.327596145,-5.531929006,-9.268723237,2.619527203
5.346130555,2.592839289,0.000307233,-0.001693761,,,6.448567939,0.027116271,-21.99934636,-51.29756805,6.744931568
5.349407905,3.325296048,8.57133E-05,-0.001878453,,,6.45234334,2.568732091,-4.231755448,-4.671294135,2.046364182
5.350233469,1.572549743,0.000272539,-0.001080251,,,6.454708536,2.484642033,-4.6653493,-6.234069808,2.236825652
5.350233469,1.572549743,0.000272539,-0.001080251,,,6.455778203,2.015792456,-7.29089695,-14.9994677,3.434203291
5.350439329,2.828638214,0.000268099,-0.001794896,,,6.457792094,2.091221543,-6.839943374,-13.57754756,3.224023676
5.350591024,0.110366897,3.52372E-05,-9.57E-05,,,6.457903747,2.756918671,-3.263092639,-1.065275077,1.626746107
5.350591024,0.110366897,3.52372E-05,-9.57E-05,,,6.458003282,2.512918842,-4.509251398,-5.671040318,2.168721259
5.352405391,0.328871069,9.7155E-05,-0.000276491,,,6.459400435,1.749525467,-10.08414074,-19.88880115,3.821174832
5.353758609,0.545329436,0.000148694,-0.000444175,,,6.462347382,1.981916006,-8.723155197,-15.57100987,3.500219383
5.354545367,1.382713686,0.000263956,-0.00098253,,,6.463164963,1.817551318,-9.669559497,-18.60439155,3.727321922
5.35465068,0.759741999,0.000190606,-0.00059886,,,6.463228926,2.679095679,-3.643087957,-2.486505799,1.791378993
5.35465068,0.759741999,0.000190606,-0.00059886,,,6.464350491,1.911039791,-9.12142295,-16.86748417,3.597932533
5.356866949,1.182758264,0.00024807,-0.000869931,,,6.472244485,2.238364565,-5.959774532,-10.69901252,2.824446274
5.357198213,0.97268348,0.000223658,-0.000740877,,,6.475024759,2.18900117,-6.230775314,-11.59771541,2.950748929
5.357198213,0.97268348,0.000223658,-0.000740877,,,6.476174543,2.264861131,-5.801920209,-10.1670056,2.753771588
5.364089541,1.916413788,0.000272803,-0.001228735,,,6.47824705,1.659370333,-10.61575542,-21.38053478,3.935727418
5.368138103,3.003312685,0.00021857,-0.001835044,,,6.48088658,1.5000354,-11.63144926,-24.27090631,4.145245442
5.369031466,1.749241365,0.000275468,-0.001158374,,,6.483033496,2.421399646,-4.933726971,-7.163930948,2.362402311
5.369031466,1.749241365,0.000275468,-0.001158374,,,6.485120299,2.68793312,-3.55042247,-2.114926578,1.752258495
5.369069153,2.288597439,0.000312863,-0.001495721,,,6.48635486,2.03185886,-7.109610153,-14.42938055,3.370379053
5.369069153,2.288597439,0.000312863,-0.001495721,,,6.487979467,1.071231175,-14.51886185,-32.01031431,4.702272325
5.369401117,3.196356694,0.000144591,-0.001861984,,,6.490607625,0.91210519,-15.62336002,-34.87877406,4.922033535
5.369401117,3.196356694,0.000144591,-0.001861984,,,6.49215468,0.804141216,-16.37784579,-36.82801898,5.081134839
5.372984523,2.515857075,0.000313352,-0.001640848,,,6.493459427,2.313288246,-5.491463898,-9.101280089,2.618383867
5.372984523,2.515857075,0.000313352,-0.001640848,,,6.493555391,1.817551318,-9.627664374,-18.33972126,3.713967724
5.374277843,2.071227609,0.000285036,-0.001321547,,,6.494092423,0.644627783,-17.4970142,-39.71344601,5.337366425
5.380265091,2.749144222,0.000283926,-0.001750263,,,6.494740919,1.911039791,-9.078800827,-16.60064839,3.58210299
5.399596373,2.213682826,0.000306655,-0.001430592,,,6.495477212,1.749525467,-10.0349957,-19.57630664,3.807247837
5.399596373,2.213682826,0.000306655,-0.001430592,,,6.498355491,0.214309148,-20.52484563,-47.52307034,6.222405715
5.39983849,2.438874862,0.000316439,-0.00158519,,,6.49842416,1.981916006,-8.672063685,-15.25220228,3.479014294
5.39983849,2.438874862,0.000316439,-0.00158519,,,6.499583811,0.054236951,-21.65445713,-50.43560556,6.653641223
5.402909366,2,0.000270256,-0.001251653,,,6.502195461,2.125885489,-6.518409182,-12.53359582,3.100319678
5.402909366,2,0.000270256,-0.001251653,,,6.502273906,2.586528419,-4.027373903,-3.871519895,1.96241771
5.407851291,1.832827577,0.000275472,-0.001185883,,,6.504861232,2.408563062,-4.949640066,-7.204986983,2.375143017
5.410090853,2.66965023,0.000296731,-0.001702723,,,6.510819225,2.016066404,-7.133681095,-14.50637319,3.399517045
5.410090853,2.66965023,0.000296731,-0.001702723,,,6.516006366,2.730094418,-3.271185348,-1.028184354,1.631760407
5.412793216,1.665655154,0.000275908,-0.001112758,,,6.524165279,2.595365861,-3.932778453,-3.500618772,1.922748731
5.412793216,1.665655154,0.000275908,-0.001112758,,,6.524844045,2.681747562,-3.494205955,-1.860284395,1.72951043
5.412793216,1.665655154,0.000275908,-0.001112758,,,6.525061769,2.482759359,-4.510839239,-5.619716481,2.181240719
5.412793216,1.665655154,0.000275908,-0.001112758,,,6.528972994,2.516327038,-4.327455035,-4.949632965,2.099374467
5.412793216,1.665655154,0.000275908,-0.001112758,,,6.529393438,1.686689027,-10.37552114,-20.43809525,3.880642382
5.412793216,1.665655154,0.000275908,-0.001112758,,,6.529703194,1.731647731,-10.09714497,-19.60862789,3.818160162
5.414399626,2.905449155,0.000245876,-0.00178518,,,6.535107362,2.0923384,-6.621021933,-12.86587668,3.169359861
5.414399626,2.905449155,0.000245876,-0.00178518,,,6.539275776,2.375882073,-5.039957065,-7.504489687,2.425850756
5.41566264,3.098493164,0.000181072,-0.001823001,,,6.54236318,0.885405748,-15.73518163,-34.94680318,4.950822116
5.416666667,0,0,0,,,6.543049201,0.831307103,-16.11103872,-35.92647799,5.030233628
5.416666667,0,0,0,,,6.548968975,1.856269841,-9.319661812,-17.13932623,3.631943384
5.416666667,0,0,0,,,6.549800068,1.558314261,-11.16210856,-22.61762729,4.048715385
5.416925653,3.291537173,9.47508E-05,-0.001832182,,,6.549885482,1.928543819,-8.898815474,-15.79001701,3.525836075
5.416925653,3.291537173,9.47508E-05,-0.001832182,,,6.550816721,2.190096023,-6.024013378,-10.89329879,2.892253692
5.416925653,3.291537173,9.47508E-05,-0.001832182,,,6.55097369,2.467520923,-4.529038826,-5.667686388,2.194379334
5.416925653,3.291537173,9.47508E-05,-0.001832182,,,6.551015872,0.02712068,-21.69310712,-50.56030637,6.719082378
5.417105114,1.475819096,0.000270523,-0.001021133,,,6.551168011,1.392628698,-12.24798846,-25.63504049,4.268543713
5.418481033,0.218504172,6.77602E-05,-0.0001852,,,6.554694275,1.179446492,-13.68533149,-29.49170397,4.546370449
5.4202954,0.437008344,0.000125154,-0.000358814,,,6.55496046,2.526818052,-4.213056311,-4.510072474,2.051658159
5.4202954,0.437008344,0.000125154,-0.000358814,,,6.5550289,2.610185754,-3.787889109,-2.932256982,1.861008969
5.42118747,0.651420907,0.000171931,-0.000517741,,,6.555715702,2.079035119,-6.640284699,-12.93020355,3.191839752
5.421417012,1.285983039,0.000258832,-0.000920209,,,6.55880366,1.013997287,-14.81935366,-32.47127922,4.766607793
5.421417012,1.285983039,0.000258832,-0.000920209,,,6.562903709,0.702495787,-16.97760819,-38.11671022,5.225872604
5.421748277,1.075908254,0.000238298,-0.000798332,,,6.563548964,0.536633991,-18.129677,-41.14073264,5.512593581
5.422079541,0.865833469,0.000209708,-0.000665132,,,6.565577291,1.817551318,-9.525308237,-17.71060495,3.679611403
5.422079541,0.865833469,0.000209708,-0.000665132,,,6.56566837,0.322698887,-19.60823271,-45.03814821,5.947255777
5.422079541,0.865833469,0.000209708,-0.000665132,,,6.567697747,1.984766369,-8.554499456,-14.58509011,3.431044478
5.422079541,0.865833469,0.000209708,-0.000665132,,,6.568315178,0.156256444,-20.75114699,-48.06800312,6.350867111
5.422079541,0.865833469,0.000209708,-0.000665132,,,6.569251388,2.314383099,-5.294559326,-8.388518523,2.554149294
5.422079541,0.865833469,0.000209708,-0.000665132,,,6.57028357,2.239780788,-5.697405844,-9.783411816,2.745636628
5.426692457,2.361892648,0.000316406,-0.001526807,,,6.5726633,1.308845997,-12.78196859,-26.98268797,4.372854566
5.426692457,2.361892648,0.000316406,-0.001526807,,,6.573415059,1.263398017,-13.08859121,-27.80536769,4.432183126
5.428227896,2.142455217,0.000297803,-0.001366622,,,6.574213628,2.266277354,-5.542302013,-9.249129717,2.673394312
5.429583147,2.582556372,0.000307386,-0.001652985,,,6.578139127,2.013534049,-6.955959468,-13.95486315,3.361946796
5.429583147,2.582556372,0.000307386,-0.001652985,,,6.582176499,2.409679919,-4.756142565,-6.471854574,2.305823258
5.444225388,2.825955163,0.00026523,-0.001745825,,,6.584571964,0.452620421,-18.67107887,-42.51528679,5.667291946
5.446671116,1.916413788,0.000274037,-0.001210561,,,6.584786554,2.486137783,-4.352496772,-5.002333368,2.119746111
5.451613041,1.749241365,0.000277036,-0.001142011,,,6.584862099,2.511867233,-4.220079317,-4.51483721,2.059133262
5.451613041,1.749241365,0.000277036,-0.001142011,,,6.585023797,0.407011932,-18.98462987,-43.34710666,5.759600686
5.453546425,2.284910434,0.00031316,-0.001465719,,,6.585306433,2.651516367,-3.511949443,-1.866177732,1.739998893
5.453546425,2.284910434,0.00031316,-0.001465719,,,6.585842872,2.564527064,-3.949214987,-3.50887856,1.936151402
5.453546425,2.284910434,0.00031316,-0.001465719,,,6.592884864,1.581327037,-10.95525363,-21.82582782,4.002765568
5.453546425,2.284910434,0.00031316,-0.001465719,,,6.594216206,2.690989498,-3.295056342,-1.034521749,1.644079567
5.453546425,2.284910434,0.00031316,-0.001465719,,,6.594408642,1.802491436,-9.573447156,-17.73684462,3.686984086
5.453546425,2.284910434,0.00031316,-0.001465719,,,6.598000362,2.175396574,-5.979154608,-10.74247514,2.89491647
5.456437114,2.505574158,0.0003134,-0.001601671,,,6.598862718,2.063483976,-6.608098606,-12.83493791,3.20441595
5.456859419,2.071227609,0.000285989,-0.001300544,,,6.602401608,0.991506158,-14.9148883,-32.52468639,4.787290953
5.461924162,3.000629634,0.000213434,-0.001779973,,,6.605776337,0.725379841,-16.75005755,-37.35859499,5.177668132
5.463187176,3.193673644,0.000136498,-0.001800275,,,6.610659847,2.425362427,-4.604840894,-5.912138692,2.241867735
5.463187176,3.193673644,0.000136498,-0.001800275,,,6.611031474,2.551932763,-3.955079493,-3.512298184,1.941444093
5.47405115,2.746461171,0.000281558,-0.001703526,,,6.61164062,0.133414186,-20.79190769,-48.16891872,6.396136355
5.47405115,2.746461171,0.000281558,-0.001703526,,,6.618608703,2.162093294,-5.996941855,-10.80604113,2.914592637
5.47966486,1.568924507,0.000275287,-0.001055829,,,6.620488368,1.928543819,-8.792479734,-15.16552303,3.482152951
5.47966486,1.568924507,0.000275287,-0.001055829,,,6.620950817,2.330129224,-5.079109325,-7.617377164,2.469458373
5.482177948,2.213682826,0.000307229,-0.001405649,,,6.625007733,2.617989404,-3.590767258,-2.129285621,1.777263824
5.482177948,2.213682826,0.000307229,-0.001405649,,,6.640711123,1.419380598,-11.95096133,-24.38588517,4.207267158
5.482856879,3.25857156,0.000103394,-0.00178735,,,6.642692191,2.238322111,-5.514309257,-9.151303342,2.688990994
5.483291082,2.428591945,0.000316319,-0.001547605,,,6.645101187,1.153976916,-13.74039483,-29.20470128,4.557451876
5.483976758,1.37908845,0.000266831,-0.000960993,,,6.647357602,2.269776447,-5.332664491,-8.51496779,2.601876555
5.484556676,0.108137275,3.51686E-05,-9.24E-05,,,6.647483978,2.12769451,-6.108571437,-11.19189611,2.986201295
5.484556676,0.108137275,3.51686E-05,-9.24E-05,,,6.649434165,2.345811732,-4.924024099,-7.058830546,2.403941801
5.485490942,2,0.000271119,-0.001232365,,,6.650196334,2.605395103,-3.596697192,-2.131772961,1.78133845
5.485490942,2,0.000271119,-0.001232365,,,6.65231517,2.659712959,-3.32189105,-1.081100634,1.657300486
5.48629834,1.179133028,0.000250903,-0.000851355,,,6.652747746,0.562802705,-17.78730734,-39.96733893,5.436647835
5.486371042,0.326641447,9.82127E-05,-0.000270433,,,6.655386325,0.296461694,-19.58405059,-44.84394522,5.974232788
5.486629605,0.969058244,0.000226261,-0.00072532,,,6.658089687,1.911039791,-8.834898873,-15.15870556,3.484889221
5.486629605,0.969058244,0.000226261,-0.00072532,,,6.659024615,1.984766369,-8.412943758,-13.7720621,3.367311384
5.487724261,0.543099815,0.0001506,-0.000435198,,,6.661661606,1.691733349,-10.15561065,-19.19748312,3.817150973
5.488616332,0.757512377,0.000193119,-0.000586849,,,6.661922539,1.729605751,-9.918928517,-18.494977,3.760956937
5.488616332,0.757512377,0.000193119,-0.000586849,,,6.667156556,2.222529655,-5.534329736,-9.226074516,2.709884103
5.490432866,1.832827577,0.00027673,-0.001168448,,,6.669465604,2.063483976,-6.406565561,-12.20115377,3.150335553
5.490432866,1.832827577,0.00027673,-0.001168448,,,6.669465995,2.013534049,-6.690697046,-13.13928132,3.295309489
5.493543444,2.659367313,0.000296258,-0.001659932,,,6.671196138,2.500144587,-4.07628228,-3.932374341,2.004808086
5.508185685,2.902766104,0.000241522,-0.001732983,,,6.671259775,2.521818613,-3.966814722,-3.520454189,1.95359224
5.508185685,2.902766104,0.000241522,-0.001732983,,,6.67288222,2.449443794,-4.329644985,-4.878500989,2.124759101
5.509448699,3.095810114,0.000174094,-0.001764232,,,6.673180724,2.551109842,-3.815282406,-2.946462444,1.883315806
5.509448699,3.095810114,0.000174094,-0.001764232,,,6.67366186,0.881686108,-15.57132937,-33.95272603,4.921277914
5.510145049,2.351609731,0.000316055,-0.001490808,,,6.674239752,0.836114383,-15.88327655,-34.78332232,4.987332105
5.510145049,2.351609731,0.000316055,-0.001490808,,,6.681170466,2.288393307,-5.145008932,-7.853011275,2.522667301
5.510809471,2.142455217,0.000298391,-0.001343453,,,6.682216809,2.64476214,-3.329215953,-1.083185069,1.661222512
5.510809471,2.142455217,0.000298391,-0.001343453,,,6.682295527,0.022845972,-21.32860962,-49.69345844,6.67975531
5.513035738,2.572273455,0.000306969,-0.001612104,,,6.682983836,1.607981106,-10.65669704,-20.55751415,3.929703015
5.513035738,2.572273455,0.000306969,-0.001612104,,,6.683795919,1.442393374,-11.73937818,-23.59598747,4.161433911
5.529118402,3.160708031,0.000144493,-0.001755727,,,6.684207791,1.785628658,-9.540564852,-17.26172943,3.6643658
5.529252692,1.916413788,0.000274949,-0.001192029,,,6.686921038,1.895979908,-8.876969371,-15.18414923,3.489694265
5.529252692,1.916413788,0.000274949,-0.001192029,,,6.688699135,1.131485787,-13.8366842,-29.25352509,4.574197108
5.533639617,2.280033093,0.000312882,-0.001436051,,,6.690630603,2.162093294,-5.798714529,-10.15284755,2.854340564
5.533639617,2.280033093,0.000312882,-0.001436051,,,6.692483754,0.965732351,-14.96794962,-32.25928451,4.796757563
5.538011447,2.823272113,0.000261487,-0.00169603,,,6.695194463,0.751969697,-16.42733312,-36.1589909,5.10696348
5.538011447,2.823272113,0.000261487,-0.00169603,,,6.695620374,0.585686759,-17.55607349,-39.21190534,5.379899301
5.539076709,1.675718978,0.000278251,-0.001093121,,,6.697609802,2.237267618,-5.373311964,-8.669216189,2.643087528
5.539076709,1.675718978,0.000278251,-0.001093121,,,6.698711767,0.273619436,-19.63647276,-44.93992794,6.007952831
5.539440994,2.071227609,0.000286561,-0.00127914,,,6.701581538,0.107163285,-20.72202864,-47.99476982,6.428056629
5.539440994,2.071227609,0.000286561,-0.00127914,,,6.702857832,2.387944819,-4.570554181,-5.766520125,2.247286971
5.539889706,2.495291242,0.000312895,-0.00156243,,,6.703458257,2.592440455,-3.539914053,-1.876997419,1.758137651
5.546536505,1.47219386,0.000273026,-0.00099789,,,6.70423073,1.314013649,-12.57312818,-25.77779457,4.327394797
5.546536505,1.47219386,0.000273026,-0.00099789,,,6.70512315,1.260061902,-12.93783769,-26.75984044,4.398755817
5.548788105,3.225605947,0.000111821,-0.001742915,,,6.706958301,2.271676934,-5.165530502,-7.932390285,2.542744989
5.550848403,1.282357803,0.000261399,-0.000899857,,,6.715486002,0.456896793,-18.38424183,-41.43018306,5.609533431
5.550848403,1.282357803,0.000261399,-0.000899857,,,6.716022377,0.402754505,-18.74341885,-42.42506212,5.717671551
5.551179668,1.072283018,0.000240764,-0.000781101,,,6.716283869,2.174508288,-5.660103995,-9.685000329,2.797348864
5.551179668,1.072283018,0.000240764,-0.000781101,,,6.71906447,2.079035119,-6.176543709,-11.46146641,3.064853611
5.552083333,0,0,0,,,6.725441453,1.981916006,-8.320445499,-13.23193802,3.321507985
5.552446685,0.216274551,6.82014E-05,-0.000180544,,,6.737836519,2.016066404,-6.474728134,-12.47842502,3.233371923
5.552446685,0.216274551,6.82014E-05,-0.000180544,,,6.740548534,2.357858879,-4.629631236,-5.98786041,2.286305832
5.554261051,0.434778723,0.000126515,-0.000351242,,,6.741310703,2.61744225,-3.331004311,-1.044567472,1.66312688
5.554261051,0.434778723,0.000126515,-0.000351242,,,6.744717736,2.091450114,-6.033722448,-10.99532695,3.006960498
5.55494835,0.863907392,0.000212212,-0.000651694,,,6.753265267,1.500574404,-11.25703817,-21.92955325,4.053146594
5.55494835,0.863907392,0.000212212,-0.000651694,,,6.755377118,1.341332342,-12.31995104,-24.8421966,4.272123665
5.555153122,0.649191285,0.000173958,-0.000507155,,,6.755727185,1.857902636,-8.990468879,-15.284849,3.505252006
5.555153122,0.649191285,0.000173958,-0.000507155,,,6.756878706,1.233362461,-13.0507379,-26.81395005,4.415759011
5.555710222,2.997946584,0.000207404,-0.001724151,,,6.759198563,1.073947667,-14.13642493,-29.72397689,4.626338245
5.555710222,2.997946584,0.000207404,-0.001724151,,,6.759667435,1.96403827,-8.364066459,-13.26140011,3.324626199
5.557503742,2.736178255,0.00028036,-0.001658697,,,6.762201405,2.461253582,-4.053136108,-3.820024168,2.006817554
5.56227114,2.208805484,0.000306834,-0.001377558,,,6.762271741,2.343777307,-4.646119077,-6.053822665,2.300721651
5.566743673,2.418309028,0.000315662,-0.001509997,,,6.762499909,2.562919629,-3.54987519,-1.881910279,1.765713144
5.566743673,2.418309028,0.000315662,-0.001509997,,,6.764651004,0.643975904,-17.04646328,-37.59600304,5.251326448
5.568072517,2,0.00027165,-0.001212715,,,6.766380523,0.48406268,-18.10620263,-40.53644749,5.533470015
5.568072517,2,0.00027165,-0.001212715,,,6.767454438,0.375638234,-18.81515047,-42.53463355,5.748796407
5.568072517,2,0.00027165,-0.001212715,,,6.767815394,2.185929351,-5.455676038,-8.998393095,2.718213311
5.568072517,2,0.00027165,-0.001212715,,,6.768289764,2.030804366,-6.30157123,-11.92664666,3.163964946
5.568072517,2,0.00027165,-0.001212715,,,6.768416708,2.234593441,-5.196178226,-8.070313171,2.58378968
5.568072517,2,0.00027165,-0.001212715,,,6.768894417,0.215553024,-19.84666581,-45.49149373,6.110866053
5.575379925,3.062844501,0.000181301,-0.001720006,,,6.776291715,2.263579229,-5.023142786,-7.447652453,2.497718145
5.576996036,2.649084397,0.000295217,-0.001617067,,,6.786733076,2.515420888,-3.726331989,-2.557916576,1.851411859
5.577896534,1.759305189,0.000278776,-0.001120474,,,6.786796713,2.537094913,-3.619943188,-2.144371347,1.800352047
5.590238241,2.34673239,0.000315346,-0.001459313,,,6.78979702,2.121718818,-5.73857647,-10.01381284,2.879111597
5.590902663,2.137577875,0.000297844,-0.001316932,,,6.790740847,2.014737963,-6.324427608,-12.02735698,3.192469014
5.595049628,3.127742418,0.000152192,-0.001711609,,,6.794513583,1.982122264,-8.201104356,-12.60846943,3.264910714
5.59648833,2.561990539,0.000305996,-0.001571183,,,6.804754581,2.321892584,-4.647436488,-6.075557765,2.314245013
5.59648833,2.561990539,0.000305996,-0.001571183,,,6.807170326,1.31475176,-12.43028253,-24.89144531,4.287054524
5.601971745,2.900083054,0.000236293,-0.001680114,,,6.807779493,1.260733625,-12.79665712,-25.88111872,4.359154596
5.601971745,2.900083054,0.000236293,-0.001680114,,,6.817311154,2.452685875,-3.961307975,-3.465844882,1.969784538
5.601971745,2.900083054,0.000236293,-0.001680114,,,6.81768278,2.579256211,-3.343501995,-1.04843148,1.67012683
5.601971745,2.900083054,0.000236293,-0.001680114,,,6.817959348,0.457119741,-18.1839748,-40.63882407,5.557988686
5.601971745,2.900083054,0.000236293,-0.001680114,,,6.818496887,0.402837583,-18.53370777,-41.64222006,5.665047185
5.601971745,2.900083054,0.000236293,-0.001680114,,,6.819273999,2.086034196,-5.846536221,-10.42132223,2.955144025
5.601971745,2.900083054,0.000236293,-0.001680114,,,6.820686932,1.608805432,-10.44743507,-19.34518011,3.862375729
5.605948353,1.578988331,0.000277651,-0.001037611,,,6.821910887,1.786452984,-9.315401977,-16.03238302,3.579235141
5.61340815,1.375463214,0.000269063,-0.000938969,,,6.824266644,1.443234268,-11.538956,-22.37590679,4.10270307
5.61340815,1.375463214,0.000269063,-0.000938969,,,6.827391762,1.896820802,-8.637658918,-13.91824678,3.387479026
5.613732808,2.275155751,0.000312154,-0.001406203,,,6.828015065,1.132056021,-13.64808289,-28.08224924,4.521086066
5.613732808,2.275155751,0.000312154,-0.001406203,,,6.829054807,0.96629135,-14.77647141,-31.13100982,4.74251355
5.614719331,3.192640334,0.00012,-0.001698921,,,6.831765517,0.752528696,-16.21418109,-35.05838208,5.047404375
5.615729731,1.175507792,0.000253148,-0.000832385,,,6.834936304,0.586256993,-17.31068187,-38.11240885,5.313808056
5.615729731,1.175507792,0.000253148,-0.000832385,,,6.838032443,0.273619436,-19.31414974,-43.89775473,5.932268073
5.616716359,1.842891401,0.000277811,-0.001144974,,,6.838157244,0.107163285,-20.34787757,-47.00029872,6.348949827
5.619498413,0.967132167,0.000228635,-0.000710138,,,6.838186387,2.072500147,-5.864411043,-10.5057803,2.977207651
5.619534186,2.066350267,0.00028583,-0.001254178,,,6.839034362,2.438604303,-3.977098733,-3.530066488,1.980937814
5.619534186,2.066350267,0.00028583,-0.001254178,,,6.839784526,1.692799638,-9.875462195,-17.61901835,3.720641627
5.619973342,0.108137275,3.57076E-05,-9.10E-05,,,6.840045459,1.730672041,-9.634339728,-16.91208997,3.659354736
5.620336694,0.324411826,9.90206E-05,-0.000264308,,,6.84090271,2.180620141,-5.278907969,-8.42897078,2.661679293
5.620336694,0.324411826,9.90206E-05,-0.000264308,,,6.850320452,0.882409189,-15.31502616,-32.5073143,4.848639624
5.621464039,2.812989196,0.000259476,-0.001649152,,,6.850898343,0.836837464,-15.62094712,-33.34539551,4.913251885
5.621464039,2.812989196,0.000259476,-0.001649152,,,6.855160871,2.012414994,-6.14274177,-11.48967355,3.141662088
5.62148514,0.7555863,0.000195195,-0.000574869,,,6.85674553,1.912054433,-8.496017114,-13.36940857,3.337332846
5.621641448,2.964980971,0.000213696,-0.001680278,,,6.858338956,1.984940117,-8.070910989,-11.98068643,3.204212984
5.621641448,2.964980971,0.000213696,-0.001680278,,,6.858960137,0.022845972,-20.80040371,-48.426078,6.574717606
5.621689912,0.540870193,0.000152135,-0.000426059,,,6.862957257,2.227725825,-4.972380155,-7.329195902,2.507152016
5.621689912,0.540870193,0.000152135,-0.000426059,,,6.864098153,2.395201347,-4.127789386,-4.123056386,2.061965889
5.623342297,2.485008325,0.000311847,-0.001523187,,,6.86789631,1.420843264,-11.62803588,-22.41435066,4.113441703
5.623342297,2.485008325,0.000311847,-0.001523187,,,6.870832264,2.256711613,-4.802399116,-6.703769467,2.419072268
5.640956333,2.725895338,0.000278601,-0.001613831,,,6.870892972,1.155112997,-13.43384803,-27.29846607,4.471113756
5.640956333,2.725895338,0.000278601,-0.001613831,,,6.871984437,2.524111104,-3.483137046,-1.585309714,1.738799848
5.641311151,3.029878888,0.000188142,-0.00167624,,,6.872059982,2.549840554,-3.359847572,-1.093015818,1.678752048
5.641311151,3.029878888,0.000188142,-0.00167624,,,6.877841897,2.316583374,-4.481748834,-5.495904248,2.250373436
5.642364331,2.203928142,0.000306019,-0.001349321,,,6.878385377,0.563560746,-17.38347798,-38.19546038,5.328462012
5.646836865,2.413431686,0.000314434,-0.001476643,,,6.878509094,2.058234841,-5.821565438,-10.40960387,2.98099121
5.647312186,2,0.000271845,-0.001193542,,,6.881029683,0.296531678,-19.07365137,-43.14970511,5.852682121
5.647312186,2,0.000271845,-0.001193542,,,6.885380682,2.162224754,-5.248555919,-8.369937775,2.668467769
5.655536184,1.926477612,0.000275317,-0.001166583,,,6.893416495,1.929358817,-8.327753119,-12.71427927,3.275251079
5.655536184,1.926477612,0.000275317,-0.001166583,,,6.897772272,2.50739473,-3.502326066,-1.659765147,1.749383103
5.660448627,2.63880148,0.000293622,-0.001574195,,,6.904293069,2.148690705,-5.264584399,-8.45371388,2.687723356
5.660448627,2.63880148,0.000293622,-0.001574195,,,6.91147851,1.58323422,-10.47598889,-19.0272759,3.851223783
5.660980854,3.094776805,0.000159567,-0.001667964,,,6.913002287,1.804398619,-9.048565734,-14.88842663,3.484692246
5.660980854,3.094776805,0.000159567,-0.001667964,,,6.913590625,2.433188385,-3.819048875,-2.929673374,1.911153205
5.665360201,1.685782801,0.000279822,-0.001072438,,,6.918376129,0.992799473,-14.47587958,-29.90861341,4.662300232
5.665360201,1.685782801,0.000279822,-0.001072438,,,6.921750858,0.726673155,-16.24868271,-34.82244617,5.037489045
5.670331432,2.341855048,0.000314167,-0.001427648,,,6.927046831,2.518524673,-3.380428267,-1.167630564,1.689808054
5.670995854,2.132700534,0.000296911,-0.001290296,,,6.927625905,0.133414186,-19.95030515,-45.85992991,6.214534798
5.670995854,2.132700534,0.000296911,-0.001290296,,,6.929614785,2.117136164,-5.355436282,-8.822197195,2.753397386
5.672819998,1.482257684,0.000275392,-0.000981128,,,6.931368554,2.331493773,-4.266509162,-4.709245877,2.150845728
5.679940922,2.551707622,0.00030448,-0.001530285,,,6.932615559,2.220196325,-4.816431939,-6.82719544,2.452750265
5.679940922,2.551707622,0.00030448,-0.001530285,,,6.938250987,2.442564048,-3.713339602,-2.516128754,1.859524459
5.679940922,2.551707622,0.00030448,-0.001530285,,,6.93858115,1.311636078,-12.27349146,-23.83101165,4.228431567
5.679940922,2.551707622,0.00030448,-0.001530285,,,6.939094301,1.266132174,-12.58438429,-24.67029135,4.289473779
5.679940922,2.551707622,0.00030448,-0.001530285,,,6.941964058,2.254605641,-4.617598882,-6.081981642,2.346346478
5.679940922,2.551707622,0.00030448,-0.001530285,,,6.942356055,1.81963225,-8.901507679,-14.34086831,3.435235655
5.680279794,1.278732567,0.000263339,-0.000879086,,,6.942791928,2.012414994,-5.873692553,-10.69503143,3.057095028
5.680279794,1.278732567,0.000263339,-0.000879086,,,6.945970013,1.984940117,-7.905711303,-11.18804726,3.121782697
5.680279794,1.278732567,0.000263339,-0.000879086,,,6.946254828,2.058234841,-5.61671615,-9.791821949,2.912735431
5.680279794,1.278732567,0.000263339,-0.000879086,,,6.949350991,0.453146929,-17.95776659,-39.7085974,5.483338627
5.680279794,1.278732567,0.000263339,-0.000879086,,,6.949803805,0.407420617,-18.24132107,-40.5604997,5.571762982
5.680279794,1.278732567,0.000263339,-0.000879086,,,6.955066642,2.204129921,-4.83411156,-6.925806219,2.472980502
5.680650557,3.159674721,0.000127901,-0.001655411,,,6.955108176,1.560843216,-10.55804814,-19.06267385,3.859972978
5.680650557,3.159674721,0.000127901,-0.001655411,,,6.956028916,2.340869436,-4.155887231,-4.297421319,2.097487103
5.682640348,2.865953297,0.00024084,-0.001628218,,,6.957918333,1.395545233,-11.67305837,-22.10943457,4.10195088
5.682640348,2.865953297,0.00024084,-0.001628218,,,6.959600197,1.857909166,-8.633899205,-13.46666358,3.351264922
5.684048477,1.070356941,0.000242919,-0.000764108,,,6.960325365,1.182100702,-13.13157456,-26.04964672,4.389420094
5.686023431,2.932789979,0.00021943,-0.001637907,,,6.961162228,1.929358817,-8.200364197,-12.10387823,3.214818933
5.686023431,2.932789979,0.00021943,-0.001637907,,,6.961254036,1.015856449,-14.26273772,-29.12881194,4.607554271
5.6875,0,0,0,,,6.965199931,0.703976909,-16.33064474,-34.90199827,5.045195909
5.687817159,0.861981315,0.000214197,-0.000637954,,,6.968456966,0.537514935,-17.39282303,-37.98494623,5.316028445
5.687817159,0.861981315,0.000214197,-0.000637954,,,6.970580972,0.323027158,-18.71502296,-41.98603529,5.730684364
5.687863351,0.216274551,6.9125E-05,-0.000177608,,,6.970623145,0.156326427,-19.70442366,-45.11766731,6.121109349
5.688021931,0.647265208,0.000175598,-0.000496655,,,6.971238617,2.265735584,-4.481728104,-5.595056016,2.281841788
5.688226703,0.432549101,0.000127557,-0.000343564,,,6.972165478,1.689339574,-9.680065146,-16.5170802,3.64131099
5.688226703,0.432549101,0.000127557,-0.000343564,,,6.972475234,1.734298278,-9.387927266,-15.6729638,3.56389057
5.688226703,0.432549101,0.000127557,-0.000343564,,,6.973400392,2.148690705,-5.062869639,-7.816140757,2.612604871
5.688226703,0.432549101,0.000127557,-0.000343564,,,6.979772167,2.43917964,-3.626976061,-2.185633018,1.81874618
5.688226703,0.432549101,0.000127557,-0.000343564,,,6.981495239,0.887203159,-15.10002472,-31.35721821,4.768959203
5.688226703,0.432549101,0.000127557,-0.000343564,,,6.98218126,0.833104514,-15.45841193,-32.35971575,4.844057628
5.693826,2.270278409,0.000310984,-0.001376214,,,6.983044079,2.493355593,-3.366083547,-1.11421897,1.683677584
5.693826,2.270278409,0.000310984,-0.001376214,,,6.987213378,2.214896807,-4.688684489,-6.420222794,2.405418329
5.698773855,2.066350267,0.000285677,-0.001233091,,,6.99016289,0.02712068,-20.3884062,-47.41322918,6.457729059
5.702132643,2.778859439,0.000263151,-0.001597847,,,6.993515911,2.360561667,-3.963421714,-3.564904421,2.001262678
5.703435489,2.480130983,0.000310017,-0.001487946,,,6.994036855,2.242093154,-4.534783498,-5.834883295,2.320638559
5.703435489,2.480130983,0.000310017,-0.001487946,,,6.994924767,2.072500147,-5.392783853,-9.07378068,2.817160293
5.704180027,1.769369013,0.000279708,-0.00109787,,,7.000480224,2.157760536,-4.937185414,-7.391623281,2.555139314
5.705693135,2.997687896,0.000194449,-0.001633985,,,7.007321383,1.752382272,-9.210127046,-15.02427353,3.505901871
5.721624937,2.691765581,0.000281314,-0.001563116,,,7.008571218,2.014737963,-5.655870622,-10.05116753,2.981496924
5.722457523,2.199050801,0.000304794,-0.001320972,,,7.011463377,1.81963225,-8.774525267,-13.72276928,3.379371296
5.722457523,2.199050801,0.000304794,-0.001320972,,,7.012343955,1.982122264,-7.790117533,-10.63839349,3.06037964
5.725362838,3.062585813,0.000166433,-0.001625835,,,7.01348391,1.912054433,-8.201762334,-11.95878791,3.199684308
5.726551855,2,0.000271731,-0.001174078,,,7.014841982,2.311462903,-4.14108342,-4.306612617,2.105044811
5.726551855,2,0.000271731,-0.001174078,,,7.022004599,2.081569978,-5.262602154,-8.65117943,2.759171626
5.726930057,2.408554345,0.000312718,-0.00144313,,,7.023958686,1.662758991,-9.766980961,-16.55632023,3.649947792
5.726930057,2.408554345,0.000312718,-0.00144313,,,7.025339998,1.503776261,-10.83599466,-19.51344829,3.903578863
5.732231846,1.589052154,0.000279267,-0.001018419,,,7.030181609,1.074444384,-13.77475547,-27.47063922,4.488423127
5.734775854,1.926477612,0.000275378,-0.001147921,,,7.032396027,0.914574323,-14.84804092,-30.4357325,4.698439395
5.739691643,1.385527037,0.000271413,-0.000923694,,,7.033760084,0.806161575,-15.56244322,-32.45099846,4.847729186
5.739691643,1.385527037,0.000271413,-0.000923694,,,7.034046807,2.291546946,-4.184300984,-4.508052297,2.135255302
5.741117231,2.604671723,0.000295284,-0.001524066,,,7.035571478,0.646067727,-16.59325536,-35.43418941,5.08660874
5.741117231,2.604671723,0.000295284,-0.001524066,,,7.037426467,2.41035249,-3.6177674,-2.188563787,1.81971269
5.742999852,1.852955224,0.000278052,-0.001120417,,,7.039443898,1.81963225,-8.721794007,-13.47196683,3.355648264
5.742999852,1.852955224,0.000278052,-0.001120417,,,7.039843799,0.214637419,-19.19720041,-43.51645946,5.918729404
5.745032541,3.12748373,0.000135319,-0.001613423,,,7.040537336,1.752382272,-9.150011586,-14.72817335,3.479968986
5.74859854,1.173581715,0.000254997,-0.000813519,,,7.040717955,2.025504849,-5.497526837,-9.551320729,2.912452181
5.74859854,1.173581715,0.000254997,-0.000813519,,,7.041205339,0.054320029,-20.09139244,-46.53822014,6.333014241
5.750235523,2.132700534,0.000296317,-0.00126725,,,7.041464431,1.912054433,-8.145998225,-11.70558183,3.172838047
5.750424624,2.336977706,0.000312527,-0.001395852,,,7.045559908,1.982122264,-7.721812206,-10.3355093,3.025281746
5.750424624,2.336977706,0.000312527,-0.001395852,,,7.056637775,2.159679895,-4.761793414,-6.832138851,2.482834753
5.752367222,0.965206089,0.000230439,-0.000694625,,,7.057621577,2.456066844,-3.35854306,-1.113800916,1.681395515
5.754353949,0.753660223,0.000196787,-0.00056265,,,7.061146525,2.010766886,-5.510585714,-9.645771386,2.936326698
5.754558721,0.538944116,0.000153339,-0.000417056,,,7.062431829,2.20165602,-4.538153975,-5.970602883,2.3526677
5.754558721,0.538944116,0.000153339,-0.000417056,,,7.068179802,2.224565733,-4.410454398,-5.475441024,2.279526249
5.754845214,2.539585001,0.000302986,-0.001492453,,,7.07164155,2.375868767,-3.689627781,-2.525170262,1.863815752
5.754845214,2.539585001,0.000302986,-0.001492453,,,7.073277819,2.100778572,-5.007004067,-7.808812504,2.640404652
5.755390009,0.108137275,3.61566E-05,-8.95E-05,,,7.073648338,1.734944656,-9.203716787,-14.76124121,3.485156017
5.75575336,0.324411826,0.000100186,-0.000259774,,,7.074330406,1.69028008,-9.497030274,-15.59408345,3.564755905
5.75575336,0.324411826,0.000100186,-0.000259774,,,7.083599716,2.267142164,-4.163654648,-4.508961832,2.139687073
5.763308952,2.83182354,0.000244807,-0.001577064,,,7.084183875,0.887849004,-14.95528867,-30.5193275,4.697803207
5.763308952,2.83182354,0.000244807,-0.001577064,,,7.084861912,0.8335349,-15.31142986,-31.53228779,4.771962182
5.766692035,2.898660222,0.000223992,-0.001586424,,,7.090846375,2.35595281,-3.731140162,-2.72536444,1.890463542
5.770075118,2.965496904,0.000200366,-0.001592238,,,7.090848037,1.857909166,-8.380264091,-12.28550041,3.234193457
5.770075118,2.965496904,0.000200366,-0.001592238,,,7.092410068,1.929358817,-7.936740054,-10.9139235,3.085942873
5.773919192,2.265401068,0.000309381,-0.00134612,,,7.092709116,0.027199349,-20.09004531,-46.69147997,6.360002433
5.773919192,2.265401068,0.000309381,-0.00134612,,,7.094569757,1.562042342,-10.33007545,-17.81999154,3.765323524
5.773919192,2.265401068,0.000309381,-0.00134612,,,7.094632168,1.396720734,-11.47136128,-20.91223129,4.014694903
5.773919192,2.265401068,0.000309381,-0.00134612,,,7.0970392,1.183276203,-12.94418338,-24.8827894,4.301682156
5.773919192,2.265401068,0.000309381,-0.00134612,,,7.100715617,1.017055575,-14.0714306,-27.96426416,4.514400577
5.773919192,2.265401068,0.000309381,-0.00134612,,,7.100930687,2.06538031,-5.101001987,-8.23232332,2.716968451
5.778013524,2.066350267,0.000285175,-0.001211708,,,7.104628961,0.704297634,-16.11656078,-33.80415281,4.943112842
5.778339782,2.468008362,0.000308377,-0.001451439,,,7.105138891,0.537829341,-17.15360893,-36.93487547,5.209640329
5.782801246,2.744729682,0.000266196,-0.001547298,,,7.10575459,1.81963225,-8.593325761,-12.8758097,3.2965188
5.789744821,3.030394821,0.000172944,-0.001584224,,,7.107262897,0.323341565,-18.42265678,-40.9697685,5.61497976
5.791643694,1.695846625,0.0002806,-0.001050761,,,7.109368548,1.984940117,-7.569669372,-9.697593846,2.948516521
5.791643694,1.695846625,0.0002806,-0.001050761,,,7.110052174,0.156647153,-19.35038177,-44.1092687,5.994623669
5.799103491,1.492321508,0.000277032,-0.000963459,,,7.112429097,2.42583354,-3.360576271,-1.167055947,1.684333367
5.799103491,1.492321508,0.000277032,-0.000963459,,,7.115424433,1.313156622,-12.0225238,-22.29767147,4.116082648
5.801697192,2.199050801,0.00030367,-0.00129593,,,7.115937584,1.267652717,-12.33718638,-23.14486867,4.177117948
5.801697192,2.199050801,0.00030367,-0.00129593,,,7.118139347,2.052965315,-5.109996671,-8.311429568,2.735255318
5.801834349,2.396431723,0.00031089,-0.00140794,,,7.122498434,2.009069831,-5.322284571,-9.114233918,2.870757079
5.802293541,2.657635824,0.000283354,-0.001513168,,,7.126152998,0.453553623,-17.62406699,-38.36763124,5.341210966
5.802293541,2.657635824,0.000283354,-0.001513168,,,7.126605811,0.407827311,-17.89310792,-39.2289272,5.427022324
5.805791524,2,0.000271307,-0.001154345,,,7.127510271,2.316932987,-3.812219626,-3.127925357,1.945145652
5.805791524,2,0.000271307,-0.001154345,,,7.133646701,1.804943117,-8.632455816,-12.90227823,3.299646677
5.809414525,3.095292738,0.000142418,-0.001571962,,,7.13400882,2.143809204,-4.607784833,-6.413520413,2.432983086
5.813407018,1.279951566,0.000265049,-0.000859839,,,7.135227335,2.40219111,-3.408940068,-1.403202965,1.712659556
5.813407018,1.279951566,0.000265049,-0.000859839,,,7.137001987,1.585225612,-10.10184503,-17.01254933,3.695629023
5.814015523,1.926477612,0.000275137,-0.001129,,,7.144340769,0.994542647,-14.16592525,-28.03214263,4.510170891
5.816021524,2.592549102,0.000293431,-0.001485223,,,7.14767622,0.727356431,-15.9061871,-33.03538172,4.873089955
5.816917285,1.068430864,0.000244457,-0.000746758,,,7.153438028,0.133801181,-19.3633561,-44.23608261,6.008017577
5.816917285,1.068430864,0.000244457,-0.000746758,,,7.153998241,2.04254373,-5.048451464,-8.179446141,2.724138987
5.820685968,0.860055238,0.000215642,-0.000623947,,,7.157414271,1.929358817,-7.797449232,-10.32036198,3.015837349
5.820685968,0.860055238,0.000215642,-0.000623947,,,7.160301351,2.407606013,-3.322269676,-1.054465454,1.664778817
5.82089074,0.645339131,0.000176795,-0.000485975,,,7.16097076,2.251271473,-4.020225539,-4.079160896,2.08084795
5.82089074,0.645339131,0.000176795,-0.000485975,,,7.162513503,2.181126824,-4.342877161,-5.423319684,2.282759146
5.822239521,1.852955224,0.000277975,-0.001102302,,,7.168261477,2.204036537,-4.218100607,-4.925104649,2.20715829
5.82277918,0.431864253,0.000128654,-0.000336891,,,7.169772463,2.339763141,-3.596664257,-2.278162381,1.825935577
5.82277918,0.431864253,0.000128654,-0.000336891,,,7.179487987,2.121041671,-4.578691058,-6.425972873,2.442588463
5.822916667,0,0,0,,,7.184201174,1.423562934,-11.15515936,-19.63781176,3.909133555
5.823280018,0.216274551,6.98705E-05,-0.000174599,,,7.187197836,1.157832667,-13.00245088,-24.61006986,4.265665008
5.823280018,0.216274551,6.98705E-05,-0.000174599,,,7.190894363,2.344324558,-3.520820709,-1.984642909,1.783993888
5.825328917,2.324855085,0.00031047,-0.001361965,,,7.191859931,1.912054433,-7.828370612,-10.33577416,3.015404022
5.825328917,2.324855085,0.00031047,-0.001361965,,,7.193453357,1.984940117,-7.380894611,-8.92305256,2.848211999
5.829475192,2.132700534,0.000295338,-0.001243907,,,7.194616412,0.564288165,-16.84245047,-35.75930662,5.084458213
5.829475192,2.132700534,0.000295338,-0.001243907,,,7.196696647,2.108626677,-4.585059373,-6.504368206,2.458019013
5.829749507,2.527462379,0.000301086,-0.001454839,,,7.197260719,0.297259097,-18.37921296,-40.81104976,5.581924296
5.829749507,2.527462379,0.000301086,-0.001454839,,,7.202326148,1.733851758,-8.969057001,-13.6300832,3.375097734
5.830463519,1.779432836,0.000279817,-0.001074259,,,7.20290071,1.696227122,-9.224187057,-14.33735682,3.445716589
5.830463519,1.779432836,0.000279817,-0.001074259,,,7.206583242,2.009069831,-5.046815513,-8.336424259,2.766370512
5.843977556,2.797693783,0.000248183,-0.00152671,,,7.21305457,2.254828081,-3.856209091,-3.510206126,1.996917769
5.843977556,2.797693783,0.000248183,-0.00152671,,,7.214192453,2.382590229,-3.294883576,-1.013300667,1.651474103
5.847360639,2.864530465,0.000228003,-0.001535746,,,7.214729243,2.085574362,-4.639772122,-6.78118203,2.506366591
5.849776921,2.262174349,0.000307552,-0.001318354,,,7.216012901,0.884387151,-14.80078675,-29.53595743,4.593776382
5.849776921,2.262174349,0.000307552,-0.001318354,,,7.216584067,0.838633928,-15.09692879,-30.39676013,4.654887992
5.850743722,2.931367147,0.000204978,-0.001541238,,,7.219002444,2.04254373,-4.837555551,-7.57407502,2.639736911
5.853244075,2.455885741,0.000306339,-0.001415166,,,7.219752043,1.8973653,-7.858828594,-10.3613707,3.016582655
5.854126805,2.998203829,0.000179081,-0.001543159,,,7.221681178,1.789007052,-8.559959051,-12.40968406,3.24690356
5.854126805,2.998203829,0.000179081,-0.001543159,,,7.223984582,0.022912242,-19.73589135,-45.86725737,6.226774819
5.857253193,2.066350267,0.000284326,-0.001190052,,,7.224376269,1.6125217,-9.764914414,-15.72750257,3.577098236
5.857253193,2.066350267,0.000284326,-0.001190052,,,7.226586474,2.338329162,-3.452704528,-1.753416316,1.747993516
5.858515339,1.599115978,0.000280115,-0.000998302,,,7.226633404,1.446746203,-10.92964206,-18.83500307,3.840010798
5.858515339,1.599115978,0.000280115,-0.000998302,,,7.230822987,1.135319739,-13.10122658,-24.67480918,4.257298259
5.86346985,2.710599925,0.000268605,-0.001497557,,,7.23417647,2.259389498,-3.775992309,-3.217462299,1.952962362
5.86346985,2.710599925,0.000268605,-0.001497557,,,7.234813498,0.968843307,-14.22023394,-27.78947841,4.465962481
5.872818866,1.386746037,0.000272612,-0.000902301,,,7.235993081,2.163866014,-4.202080647,-5.05997332,2.231600516
5.873796508,3.063101746,0.000149175,-0.001531053,,,7.237492658,0.754229303,-15.60631474,-31.83326739,4.752633666
5.876738642,2.384309102,0.000308675,-0.001372997,,,7.237663672,0.587346962,-16.63346462,-34.99906536,5.004860415
5.876738642,2.384309102,0.000308675,-0.001372997,,,7.240646573,0.274413125,-18.41073352,-40.93660366,5.584586497
5.877197833,2.645513203,0.00028111,-0.001473323,,,7.242816558,2.19106236,-4.056810922,-4.465315277,2.139348651
5.877554921,2.195824082,0.000301899,-0.001269704,,,7.243353222,0.107474134,-19.26860668,-44.1118259,5.975335165
5.881725763,1.174800715,0.000256497,-0.000795888,,,7.246761487,1.318531477,-11.8063676,-21.0819357,4.004102846
5.885031193,2,0.000270574,-0.001134364,,,7.247370654,1.264513342,-12.1848387,-22.09727861,4.07563352
5.885031193,2,0.000270574,-0.001134364,,,7.254575133,1.982122264,-7.253136354,-8.410785786,2.776727554
5.885031193,2,0.000270574,-0.001134364,,,7.256421652,2.149128051,-4.207300873,-5.151863338,2.246995121
5.885031193,2,0.000270574,-0.001134364,,,7.257447903,0.458130687,-17.35813644,-37.31121672,5.204511549
5.885031193,2,0.000270574,-0.001134364,,,7.257985442,0.403848529,-17.66491222,-38.34206559,5.304131541
5.885236031,0.963280012,0.000231654,-0.000678818,,,7.260046963,2.272667648,-3.644966639,-2.707375063,1.876643123
5.885236031,0.963280012,0.000231654,-0.000678818,,,7.263007338,2.108626677,-4.375352574,-5.877602799,2.364535672
5.887222758,0.751734146,0.000197876,-0.000550223,,,7.267890574,2.196477263,-3.957320257,-4.118750466,2.085613871
5.887222758,0.751734146,0.000197876,-0.000550223,,,7.268534847,2.052965315,-4.623580528,-6.907474321,2.537083345
5.889111198,0.538259268,0.000154442,-0.000408684,,,7.27016175,2.010766886,-4.825680534,-7.710976082,2.675587101
5.890305838,0.323726977,0.000100895,-0.000254651,,,7.282886021,2.310179389,-3.421898888,-1.750938168,1.73802408
5.890806676,0.108137275,3.65105E-05,-8.80E-05,,,7.287017539,2.346177686,-3.260719683,-1.006182966,1.635835991
5.890806676,0.108137275,3.65105E-05,-8.80E-05,,,7.287686135,1.964684649,-7.27870979,-8.439621717,2.775363118
5.890925817,2.58042648,0.00029118,-0.001446626,,,7.288247412,1.860456704,-7.942661877,-10.44021388,3.020978693
5.893255192,1.926477612,0.000274593,-0.00110984,,,7.288293424,2.149128051,-4.108351464,-4.846900367,2.19920094
5.893255192,1.926477612,0.000274593,-0.00110984,,,7.289855545,2.108626677,-4.289590687,-5.622300548,2.324819877
5.901186646,2.321628366,0.000308157,-0.001332609,,,7.291607555,2.230673956,-3.736598188,-3.220900786,1.948019413
5.90147919,1.852955224,0.000277601,-0.001083956,,,7.293668438,1.505466172,-10.40936142,-17.14354018,3.690238867
5.90147919,1.852955224,0.000277601,-0.001083956,,,7.295383054,2.052965315,-4.534695471,-6.654256254,2.49836809
5.9046538,2.515339758,0.000298792,-0.001417478,,,7.295733482,2.182555809,-3.935357493,-4.12209513,2.084866869
5.9046538,2.515339758,0.000298792,-0.001417478,,,7.297133207,1.346052565,-11.54285219,-20.13434232,3.920165812
5.905332921,2.129473815,0.000293606,-0.001219211,,,7.299158502,1.237788022,-12.30378206,-22.17057367,4.062291751
5.909703188,1.779432836,0.000279595,-0.001056722,,,7.301671088,1.077675125,-13.40494152,-25.19019969,4.263481641
5.909703188,1.779432836,0.000279595,-0.001056722,,,7.302033523,2.010766886,-4.717741859,-7.412260486,2.630735034
5.917927187,1.705910448,0.000280572,-0.001028146,,,7.306694817,2.162402943,-3.991461087,-4.410543019,2.129573236
5.917927187,1.705910448,0.000280572,-0.001028146,,,7.30706007,0.645990917,-16.17190402,-33.36463896,4.841316232
5.917927187,1.705910448,0.000280572,-0.001028146,,,7.30854973,0.485504013,-17.11127907,-36.41696821,5.10081883
5.917927187,1.705910448,0.000280572,-0.001028146,,,7.309489219,0.37672785,-17.71665972,-38.49033725,5.298913206
5.917927187,1.705910448,0.000280572,-0.001028146,,,7.310772319,0.21617828,-18.5598129,-41.55917191,5.632523095
5.917927187,1.705910448,0.000280572,-0.001028146,,,7.31506192,2.218946774,-3.718452684,-3.222199103,1.945348219
5.917927187,1.705910448,0.000280572,-0.001028146,,,7.31994875,1.982562384,-7.088102221,-7.791940472,2.686508945
5.92464616,2.763564026,0.000250959,-0.001477205,,,7.321150535,2.279196472,-3.446276535,-1.981028342,1.762497025
5.92464616,2.763564026,0.000250959,-0.001477205,,,7.340665753,2.085574362,-4.231157997,-5.587571045,2.321843541
5.92464616,2.763564026,0.000250959,-0.001477205,,,7.341327532,2.317092923,-3.235943326,-1.037160403,1.625930521
5.92464616,2.763564026,0.000250959,-0.001477205,,,7.344604899,2.26746929,-3.428941568,-1.979751577,1.757033257
5.92464616,2.763564026,0.000250959,-0.001477205,,,7.344938954,2.04254373,-4.418058537,-6.388088971,2.459163519
5.92464616,2.763564026,0.000250959,-0.001477205,,,7.349000793,1.31979806,-11.65932844,-20.19618652,3.903829507
5.925634649,2.25894763,0.000305347,-0.001290485,,,7.350416921,1.265551653,-12.04233546,-21.21761395,3.974330772
5.925634649,2.25894763,0.000305347,-0.001290485,,,7.353482779,2.108626677,-4.084120138,-5.013073866,2.225981029
5.928029243,2.830400708,0.000231451,-0.001485922,,,7.355573699,1.790766024,-8.264500114,-11.15977921,3.098082027
5.928029243,2.830400708,0.000231451,-0.001485922,,,7.356335606,1.899159625,-7.527281896,-9.067506056,2.845572488
5.928148368,2.443763119,0.000303917,-0.00137916,,,7.35826879,1.614280672,-9.517456131,-14.5073595,3.44401421
5.928148368,2.443763119,0.000303917,-0.00137916,,,7.360224165,0.458496929,-17.1726862,-36.56204237,5.089273406
5.931412326,2.89723739,0.000209065,-0.001491096,,,7.360626114,0.404002923,-17.47135819,-37.60461567,5.187735081
5.931412326,2.89723739,0.000209065,-0.001491096,,,7.363216967,1.448540528,-10.71425726,-17.62256155,3.707569629
5.932230714,1.493540507,0.000277642,-0.000939868,,,7.363369375,2.009069831,-4.514908063,-6.867153441,2.545968078
5.933110922,2.063123548,0.000282616,-0.001166873,,,7.368983782,2.119809207,-3.983788597,-4.644111286,2.164513498
5.933110922,2.063123548,0.000282616,-0.001166873,,,7.36917044,2.303171469,-3.216595471,-1.033094444,1.617037862
5.934795409,2.964074072,0.00018378,-0.001492705,,,7.370064024,2.217659118,-3.560966546,-2.708497594,1.858612736
5.934795409,2.964074072,0.00018378,-0.001492705,,,7.370696449,1.13618342,-12.91861961,-23.51932288,4.11748209
5.938178492,3.030910754,0.000155569,-0.001490724,,,7.371143498,2.190905985,-3.669687805,-3.22471089,1.937328792
5.938178492,3.030910754,0.000155569,-0.001490724,,,7.371931099,0.969689971,-14.03905442,-26.69112398,4.325299129
5.938178492,3.030910754,0.000155569,-0.001490724,,,7.374610258,0.755075967,-15.40730224,-30.7762531,4.607443319
5.938374143,2.698477303,0.000265944,-0.001456721,,,7.375519981,1.736127039,-8.607168273,-12.02540873,3.191067476
5.938374143,2.698477303,0.000265944,-0.001456721,,,7.376094543,1.698502404,-8.875570812,-12.73960959,3.266662365
5.946534241,1.281170566,0.000266052,-0.000840087,,,7.377537133,0.588210643,-16.405191,-33.95087505,4.85215318
5.946534241,1.281170566,0.000266052,-0.000840087,,,7.37846084,1.985310867,-6.918754332,-7.188404746,2.593837146
5.950044509,1.069649863,0.000245733,-0.000730771,,,7.379928928,0.107474134,-18.9218285,-43.18301312,5.803199113
5.952102126,2.633390581,0.000278479,-0.001433751,,,7.379967249,0.274413125,-18.11363742,-39.96077749,5.420339903
5.952102126,2.633390581,0.000278479,-0.001433751,,,7.380377129,2.173929573,-3.713072224,-3.468517747,1.973821226
5.952596371,2.381082383,0.00030582,-0.001342036,,,7.383513052,1.914219507,-7.360953728,-8.523361393,2.771446361
5.95341265,2.192597364,0.000299779,-0.001243394,,,7.392903082,2.255170858,-3.341583911,-1.742516018,1.710017366
5.953554777,0.858129161,0.000216531,-0.000609705,,,7.393378467,0.885482336,-14.55979482,-28.13726215,4.409546063
5.953554777,0.858129161,0.000216531,-0.000609705,,,7.393949633,0.839729113,-14.85103594,-29.00963105,4.469257327
5.953554777,0.858129161,0.000216531,-0.000609705,,,7.400649192,0.022912242,-19.24389585,-44.68470943,5.995188923
5.953554777,0.858129161,0.000216531,-0.000609705,,,7.406909288,1.426424206,-10.81039189,-17.66992878,3.691966739
5.953554777,0.858129161,0.000216531,-0.000609705,,,7.407312571,2.04254373,-4.204449585,-5.793100426,2.360133817
5.953554777,0.858129161,0.000216531,-0.000609705,,,7.413376089,2.138028101,-3.76125907,-3.853512581,2.030487974
5.955443217,0.644654283,0.000177798,-0.000475832,,,7.413875618,1.159571002,-12.7027853,-22.72366072,4.039234435
5.957331657,0.431179404,0.000129408,-0.000330099,,,7.415728279,1.931097887,-7.16680383,-7.89381274,2.682226042
5.957331657,0.431179404,0.000129408,-0.000330099,,,7.421066746,0.565460362,-16.46717557,-34.07394633,4.836283079
5.957832495,0.215589702,7.02203E-05,-0.000171019,,,7.423044048,0.297389156,-17.90861607,-39.22253919,5.31768793
5.958333333,0,0,0,,,7.423984567,2.277694172,-3.165648189,-0.985648331,1.591552262
5.958333333,0,0,0,,,7.439692358,2.052965315,-4.044759721,-5.27640124,2.269532465
5.958333333,0,0,0,,,7.443424098,1.809012723,-7.937736362,-10.00285892,2.947138244
5.961064196,2,0.000269583,-0.001114976,,,7.444051445,2.009069831,-4.230408179,-6.099206173,2.416851841
5.961064196,2,0.000269583,-0.001114976,,,7.446779383,1.589295218,-9.544890263,-14.20204599,3.387358124
5.96583011,2.568303859,0.000288544,-0.001408308,,,7.447879711,2.227682544,-3.290224712,-1.736351923,1.691329515
5.96583011,2.568303859,0.000288544,-0.001408308,,,7.455193361,2.064147845,-3.941332304,-4.905424214,2.203708472
5.969288194,1.926477612,0.000273788,-0.001091248,,,7.45914291,1.985310867,-6.696322022,-6.422188164,2.466015373
5.977044375,2.318401648,0.000305453,-0.001303161,,,7.461579796,0.996501513,-13.74847906,-25.48297777,4.184986554
5.977512193,1.852955224,0.000276964,-0.001066154,,,7.464915248,0.729315296,-15.43736133,-30.60486133,4.535020581
5.979558093,2.503217137,0.00029612,-0.001380405,,,7.469423313,0.133801181,-18.58468713,-42.0795826,5.614730955
5.979558093,2.503217137,0.00029612,-0.001380405,,,7.470601544,1.824072606,-7.765045136,-9.459834614,2.874647674
5.979558093,2.503217137,0.00029612,-0.001380405,,,7.471800331,2.203871574,-3.310836935,-1.96898957,1.717799253
5.979558093,2.503217137,0.00029612,-0.001380405,,,7.478101895,1.931097887,-6.999206353,-7.305247443,2.587499581
5.979558093,2.503217137,0.00029612,-0.001380405,,,7.480022907,2.094997469,-3.722995793,-4.051733892,2.052968232
5.979558093,2.503217137,0.00029612,-0.001380405,,,7.481033962,2.186895163,-3.348325813,-2.214100441,1.752331567
5.98119065,2.126247097,0.000291553,-0.001194448,,,7.481784519,1.317592974,-11.49766847,-19.13276006,3.75266707
5.98119065,2.126247097,0.000291553,-0.001194448,,,7.48297744,1.271896777,-11.82465015,-20.00441227,3.811090673
5.983091822,2.745198672,0.000250937,-0.001443024,,,7.483054566,1.861407207,-7.468313732,-8.618622949,2.76436487
5.983091822,2.745198672,0.000250937,-0.001443024,,,7.490471704,1.567178896,-9.636407694,-14.24365798,3.370877632
5.985736191,1.779432836,0.000279108,-0.001039703,,,7.491191776,2.148051527,-3.468690054,-2.885957189,1.855763502
5.985736191,1.779432836,0.000279108,-0.001039703,,,7.491864621,0.454491586,-16.96327456,-35.71721885,4.931378985
5.990898388,2.798966135,0.000235188,-0.001447085,,,7.492203216,0.408586817,-17.20500778,-36.60228017,5.012683563
5.990898388,2.798966135,0.000235188,-0.001447085,,,7.49509842,2.242137245,-3.097607646,-0.97065908,1.559577042
5.991642562,1.600334978,0.000280058,-0.00097247,,,7.498615397,1.401725448,-10.85975992,-17.36891009,3.61523883
5.991642562,1.600334978,0.000280058,-0.00097247,,,7.502590332,2.010766886,-4.010945731,-5.502048624,2.308868395
5.994281471,2.865802817,0.000213532,-0.001452265,,,7.504167816,1.740600475,-8.301377053,-10.76852877,3.019944386
5.996819805,2.68011195,0.000265618,-0.001423148,,,7.504211015,1.187378932,-12.39566543,-21.46705746,3.89058126
5.997664554,2.932639499,0.000188958,-0.001453885,,,7.504758965,1.019889095,-13.53922258,-24.70178494,4.099430588
6.001047638,2.999476181,0.000161444,-0.001451921,,,7.504849885,1.695935899,-8.636537348,-11.6284179,3.11249983
6.001492378,2.255720912,0.000302774,-0.00126254,,,7.508444861,0.706565015,-15.5116114,-30.73063009,4.511178283
6.001492378,2.255720912,0.000302774,-0.00126254,,,7.51124382,0.53927649,-16.46924179,-33.94440955,4.76294211
6.004006096,2.440536401,0.000300468,-0.001346582,,,7.512500113,0.156777212,-18.38166829,-41.35142364,5.498580807
6.004006096,2.440536401,0.000300468,-0.001346582,,,7.512832063,0.323951629,-17.59664879,-38.10220014,5.144029905
6.005946089,1.387965036,0.000273071,-0.000880388,,,7.520505559,1.982562384,-6.534967231,-5.887185729,2.368586461
6.009143925,2.063123548,0.000281179,-0.001145731,,,7.520991725,2.024041779,-3.884384721,-5.059953574,2.226618312
6.010547789,2.615025228,0.000277823,-0.001400783,,,7.525073308,0.890571377,-14.35544695,-27.05169773,4.237340717
6.014852987,1.176019714,0.000257315,-0.000777817,,,7.525751344,0.836257274,-14.696738,-28.09782824,4.308252188
6.018363254,0.964499012,0.0002327,-0.000664497,,,7.527822356,1.914219507,-6.977094449,-7.164355168,2.554255025
6.018363254,0.964499012,0.0002327,-0.000664497,,,7.531856134,0.027199349,-18.87604469,-43.75706739,5.786619525
6.021775235,0.751049298,0.00019868,-0.000538239,,,7.534228778,1.824072606,-7.609446945,-8.868623876,2.782304624
6.021775235,0.751049298,0.00019868,-0.000538239,,,7.534573028,2.074372727,-3.620633454,-3.924081848,2.02015877
6.023663676,0.537574419,0.000155128,-0.000400166,,,7.536430431,1.758478211,-8.095593798,-10.12667677,2.93470396
6.024275772,2.549938505,0.000287534,-0.00137594,,,7.545942895,2.214785242,-3.046685979,-0.99657687,1.538111371
6.024275772,2.549938505,0.000287534,-0.00137594,,,7.549020283,2.142999679,-3.299821637,-2.405764139,1.757309628
6.024858315,0.323042129,0.00010133,-0.000249453,,,7.551087546,1.982562384,-6.442186247,-5.591248802,2.312883267
6.025359153,0.107452427,3.65391E-05,-8.60E-05,,,7.553584071,1.914219507,-6.904237905,-6.919012875,2.511006068
6.025359153,0.107452427,3.65391E-05,-8.60E-05,,,7.553895047,2.019833428,-3.781829982,-4.821911615,2.17947417
6.0284541,2.377855665,0.000302562,-0.001310995,,,7.55671747,1.669681394,-8.73109642,-11.66945728,3.091918118
6.0284541,2.377855665,0.000302562,-0.001310995,,,7.55690423,2.194632376,-3.08498865,-1.288437791,1.576460651
6.029270379,2.189370645,0.000297317,-0.001217024,,,7.559990494,1.824072606,-7.545600661,-8.628914914,2.742438109
6.029270379,2.189370645,0.000297317,-0.001217024,,,7.562290195,2.070827689,-3.537030252,-3.719635272,1.977358336
6.037097199,2,0.000268312,-0.001095396,,,7.563215749,1.510539948,-9.947054846,-14.71187972,3.363234897
6.037097199,2,0.000268312,-0.001095396,,,7.566075641,2.006558536,-3.7944659,-4.967508413,2.205355943
6.041537484,2.726833319,0.000250672,-0.001409248,,,7.567012418,1.758478211,-8.025046913,-9.845416071,2.889622681
6.041537484,2.726833319,0.000250672,-0.001409248,,,7.574471026,1.079393777,-13.05209591,-23.01844168,3.927227422
6.045321197,1.926477612,0.000272707,-0.001072471,,,7.576331727,0.918335007,-14.11114591,-26.1379355,4.129367043
6.049344051,2.780600782,0.000235108,-0.001412887,,,7.576737449,2.13945464,-3.221585483,-2.195444735,1.710856636
6.050444111,2.501463132,0.000292163,-0.001348862,,,7.577425779,0.809250189,-14.79432854,-28.24999206,4.272791673
6.050444111,2.501463132,0.000292163,-0.001348862,,,7.578794008,0.648361539,-15.74886825,-31.36470253,4.500146521
6.052902104,2.315174929,0.000302367,-0.001273648,,,7.581988671,0.215247483,-17.96807016,-39.76399535,5.265774641
6.052902104,2.315174929,0.000302367,-0.001273648,,,7.582993029,0.054474423,-18.63906157,-42.90215099,5.635184332
6.053545196,1.852955224,0.000276055,-0.001048173,,,7.589807552,2.190424026,-2.998089895,-1.033248795,1.518994957
6.053545196,1.852955224,0.000276055,-0.001048173,,,7.598942014,1.931097887,-6.651281989,-6.149439665,2.381047819
6.055265468,2.661746597,0.000265044,-0.001389983,,,7.603894685,1.861407207,-7.149709632,-7.482299271,2.571560687
6.057150617,2.834368244,0.000217574,-0.001414023,,,7.603900416,1.743089384,-8.062828978,-9.810890146,2.865052988
6.057150617,2.834368244,0.000217574,-0.001414023,,,7.60853018,1.698957144,-8.400053815,-10.63512101,2.953298639
6.057223653,2.126247097,0.000289603,-0.001171526,,,7.60958423,1.985310867,-6.239420296,-4.965128527,2.190815375
6.057783566,1.707772206,0.000279701,-0.000998803,,,7.610035432,2.078368807,-3.336500554,-3.088720882,1.849630496
6.057783566,1.707772206,0.000279701,-0.000998803,,,7.617053976,2.043445798,-3.448161719,-3.722567505,1.962334501
6.0605337,2.901204926,0.000193734,-0.001415654,,,7.621042865,1.824072606,-7.389746717,-8.057980658,2.640665962
6.063916783,2.968041609,0.000166938,-0.001413708,,,7.621204302,2.131422865,-3.101834006,-1.901514968,1.639877099
6.065357937,1.494759507,0.000277483,-0.000915752,,,7.622209932,2.005524793,-3.584770192,-4.43461146,2.095326382
6.065357937,1.494759507,0.000277483,-0.000915752,,,7.627314689,2.032263268,-3.454497572,-3.845061115,1.982058501
6.068993451,2.596659874,0.000276914,-0.001368224,,,7.628388315,0.891471683,-14.21375532,-26.2872537,4.087578805
6.068993451,2.596659874,0.000276914,-0.001368224,,,7.62880433,0.836700969,-14.55560222,-27.35345816,4.160236978
6.074892114,2.438782396,0.000296774,-0.001316543,,,7.631245659,1.569349175,-9.3807291,-12.97730109,3.160298378
6.077350107,2.252494193,0.000299844,-0.001234542,,,7.634470228,0.027275074,-18.61245132,-43.11986042,5.61829807
6.077350107,2.252494193,0.000299844,-0.001234542,,,7.636615749,1.403852966,-10.64875255,-16.18469671,3.406884631
6.077350107,2.252494193,0.000299844,-0.001234542,,,7.642211367,1.18950645,-12.20619122,-20.35309282,3.683412149
6.077350107,2.252494193,0.000299844,-0.001234542,,,7.642894577,2.166193116,-2.912150051,-0.969390044,1.475249084
6.077350107,2.252494193,0.000299844,-0.001234542,,,7.64553292,1.022059374,-13.3464054,-23.61176886,3.891429722
6.077350107,2.252494193,0.000299844,-0.001234542,,,7.648150582,0.706873737,-15.30807575,-29.75259022,4.312830367
6.079661464,1.282389566,0.000266337,-0.000819882,,,7.648196985,0.539579129,-16.24585429,-33.0143674,4.568403143
6.079661464,1.282389566,0.000266337,-0.000819882,,,7.649785229,0.324254269,-17.33099046,-37.20433331,4.943384875
6.083171732,1.070868863,0.000246353,-0.000714404,,,7.65211665,1.811109335,-7.409677694,-8.019154377,2.617466389
6.083171732,1.070868863,0.000246353,-0.000714404,,,7.652205835,0.157085934,-18.06561815,-40.46042459,5.282586332
6.085176927,2.063123548,0.000279433,-0.001124399,,,7.658165216,2.025915069,-3.362057728,-3.663066387,1.937882098
6.088040612,0.858144081,0.000217159,-0.000596232,,,7.658791499,1.931097887,-6.467924466,-5.567536788,2.264539013
6.088040612,0.858144081,0.000217159,-0.000596232,,,7.660291949,1.320344981,-11.23985516,-17.63970966,3.482390501
6.089995694,0.643969434,0.000178315,-0.000465518,,,7.66148487,1.274648784,-11.57250191,-18.53133112,3.540870822
6.089995694,0.643969434,0.000178315,-0.000465518,,,7.669017485,0.454883059,-16.65480089,-34.53119611,4.677955292
6.091884135,0.430494556,0.000129806,-0.000323207,,,7.66935608,0.40897829,-16.88523484,-35.42549171,4.757469458
6.091884135,0.430494556,0.000129806,-0.000323207,,,7.674889098,2.104580467,-3.009545503,-1.890453493,1.60681495
6.092384973,0.214904854,7.03739E-05,-0.000167403,,,7.674891752,1.594010539,-9.10731229,-12.11020248,3.043584742
6.092384973,0.214904854,7.03739E-05,-0.000167403,,,7.687001263,1.985310867,-5.979859459,-4.196038493,2.025217529
6.09375,0,0,0,,,7.689384453,0.999430193,-13.43902187,-23.74187696,3.849703756
6.09516179,2.548184501,0.000283007,-0.001343127,,,7.691430949,0.72999778,-15.11057513,-29.01047917,4.212962458
6.099340118,2.37610166,0.000299114,-0.001282451,,,7.692053475,1.914219507,-6.491424811,-5.580685169,2.248190581
6.099983147,2.708467966,0.000250169,-0.001375892,,,7.695569301,0.134173692,-18.06169139,-40.64550337,5.262290927
6.099983147,2.708467966,0.000250169,-0.001375892,,,7.699626964,2.005524793,-3.27977937,-3.65779013,1.921958754
6.105303382,2.189370645,0.000294792,-0.001192299,,,7.700944061,2.077351335,-3.008707301,-2.175718693,1.6410265
6.105303382,2.189370645,0.000294792,-0.001192299,,,7.711204773,2.066168804,-3.009399819,-2.298215537,1.657102494
6.107789713,2.762235428,0.000234798,-0.001379112,,,7.712337408,2.1314717,-2.792071565,-0.943149647,1.419161483
6.113130202,2,0.000266763,-0.001075642,,,7.718014701,2.025915069,-3.127925413,-3.053326783,1.795801147
6.113130202,2,0.000266763,-0.001075642,,,7.723018881,2.052126728,-3.013285344,-2.463435026,1.680506568
6.11371113,2.643381243,0.000264224,-0.001357238,,,7.72312726,1.901256237,-6.496416546,-5.538060287,2.221109098
6.11371113,2.643381243,0.000264224,-0.001357238,,,7.726190673,1.431346492,-10.30916196,-14.91857862,3.207220194
6.115596279,2.816002891,0.000217443,-0.001379828,,,7.733157003,1.164493288,-12.2641337,-20.17192494,3.558868514
6.121330128,2.499709127,0.000287823,-0.001317211,,,7.737925332,0.566160557,-15.95981412,-31.91609027,4.387452158
6.121330128,2.499709127,0.000287823,-0.001317211,,,7.739902634,0.298089352,-17.2788035,-37.15728269,4.851157058
6.1213542,1.926477612,0.000271352,-0.001053525,,,7.741452837,1.748370675,-7.702900071,-8.445150608,2.599356846
6.1213542,1.926477612,0.000271352,-0.001053525,,,7.743528235,1.982562384,-5.798595087,-3.679722646,1.901689793
6.123402845,2.869770354,0.000198095,-0.00137803,,,7.745352868,1.71119447,-8.007741729,-9.157124202,2.676328627
6.123402845,2.869770354,0.000198095,-0.00137803,,,7.749652055,1.800600573,-7.243627991,-7.321827145,2.454760163
6.123788121,2.313420924,0.000299149,-0.001246589,,,7.75851633,2.006558536,-3.035319136,-3.032735279,1.770610409
6.123788121,2.313420924,0.000299149,-0.001246589,,,7.760839835,0.887740916,-14.05923991,-25.45171956,3.87824778
6.12559257,1.781294594,0.000277466,-0.001008563,,,7.761190279,0.841603053,-14.3434725,-26.35793293,3.941549408
6.126785928,2.936607036,0.000172039,-0.001376102,,,7.762426233,2.104114685,-2.698480049,-0.969391844,1.380131114
6.131498941,1.602196735,0.000279149,-0.000944983,,,7.765730809,0.022976031,-18.30384062,-42.42782992,5.397098004
6.133256656,2.126247097,0.000287319,-0.001148417,,,7.765784093,2.032263268,-2.913908817,-2.426176134,1.646336437
6.133256656,2.126247097,0.000287319,-0.001148417,,,7.767945873,1.626218666,-8.674453955,-10.67318456,2.798512614
6.139073313,1.389184036,0.000272781,-0.000858016,,,7.769836766,1.456007856,-10.05412621,-14.08123003,3.081925285
6.139073313,1.389184036,0.000272781,-0.000858016,,,7.772257145,2.066168804,-2.776216345,-1.653452531,1.494255822
6.139879469,2.59490587,0.000271793,-0.001334139,,,7.774606827,2.090839793,-2.692324734,-1.113970477,1.393738901
6.145778132,2.437028391,0.000292713,-0.001286407,,,7.777008535,1.141864107,-12.36340988,-20.30984467,3.507379168
6.14798021,1.177238714,0.000257437,-0.000759355,,,7.780164798,0.973247397,-13.48940105,-23.63348514,3.72778927
6.14798021,1.177238714,0.000257437,-0.000759355,,,7.780416232,1.967173557,-5.788543875,-3.62001762,1.860574212
6.151319366,2.2519507,0.000296752,-0.001208457,,,7.781205699,0.589284599,-15.76699724,-31.19100385,4.281033495
6.151319366,2.2519507,0.000296752,-0.001208457,,,7.781808621,0.756829163,-14.82249071,-27.89373789,4.027289945
6.15284909,0.964513932,0.000232953,-0.000649041,,,7.7832661,0.27517711,-17.29639005,-37.34763179,4.82381173
6.156261071,0.751064218,0.000199063,-0.000526491,,,7.785393077,0.107773349,-17.9627333,-40.63540474,5.166366265
6.158216153,0.536889571,0.000155383,-0.000391525,,,7.787860727,2.006558536,-2.915176937,-2.727733271,1.690594425
6.158216153,0.536889571,0.000155383,-0.000391525,,,7.790503285,2.032263268,-2.81205574,-2.162353417,1.57650344
6.158428809,2.690102612,0.000249431,-0.001342968,,,7.792728633,1.326638908,-11.0117073,-16.50629084,3.223280701
6.158428809,2.690102612,0.000249431,-0.001342968,,,7.794144761,1.2723925,-11.40980559,-17.58238238,3.296743281
6.158428809,2.690102612,0.000249431,-0.001342968,,,7.796976336,2.066168804,-2.677715672,-1.383901731,1.423639221
6.158428809,2.690102612,0.000249431,-0.001342968,,,7.800584871,0.45947004,-16.40731385,-33.62218362,4.461482163
6.158428809,2.690102612,0.000249431,-0.001342968,,,7.80098682,0.404976034,-16.6719298,-34.69040598,4.555123687
6.159410792,0.322357281,0.000101479,-0.000244195,,,7.803951224,2.090839793,-2.582279871,-0.791267035,1.309657016
6.159410792,0.322357281,0.000101479,-0.000244195,,,7.804548869,1.870291253,-6.494213758,-5.382931153,2.123932432
6.16077582,0.107452427,3.66875E-05,-8.44E-05,,,7.808521399,1.984611173,-5.545394801,-2.96135397,1.717891985
6.16120993,2.063123548,0.000277383,-0.001102895,,,7.833964669,2.025915069,-2.660097502,-1.830939614,1.473796616
6.16120993,2.063123548,0.000277383,-0.001102895,,,7.83896885,2.052126728,-2.561650351,-1.221449617,1.350871009
6.166047807,2.546430496,0.000278093,-0.001310217,,,7.841345873,1.519531685,-9.427982627,-12.2394435,2.820807053
6.166235375,2.743870075,0.000234259,-0.001345773,,,7.843980235,2.005524793,-2.678486205,-2.152623558,1.52671763
6.166235375,2.743870075,0.000234259,-0.001345773,,,7.844541342,1.355914657,-10.71486105,-15.53822443,3.068669094
6.170226135,2.374347655,0.000295317,-0.001253821,,,7.846201349,1.245529176,-11.53351363,-17.75425747,3.225931805
6.170226135,2.374347655,0.000295317,-0.001253821,,,7.84790514,1.08336007,-12.66782475,-20.9947146,3.449285412
6.174041941,2.797637538,0.000217091,-0.001346073,,,7.851211598,0.648046753,-15.33800518,-29.60636997,4.071896187
6.174041941,2.797637538,0.000217091,-0.001346073,,,7.851963422,0.486920819,-16.18414371,-32.7764766,4.329377168
6.179272641,2.188827152,0.000291949,-0.001167791,,,7.85246402,0.377776685,-16.7086169,-34.92282607,4.517082268
6.181848508,2.851405,0.000197919,-0.001343857,,,7.853189634,0.216780135,-17.40306128,-38.09332569,4.818652181
6.181848508,2.851405,0.000197919,-0.001343857,,,7.855558044,2.066168804,-2.45226107,-0.738055874,1.24070706
6.184597148,2.641627238,0.000258488,-0.001321881,,,7.861384413,1.987036729,-5.318772086,-2.355605656,1.554316368
6.184597148,2.641627238,0.000258488,-0.001321881,,,7.868463607,1.909608936,-5.937174124,-3.939288355,1.807324997
6.189163205,2,0.00026494,-0.001055731,,,7.891392169,2.025915069,-2.412020729,-1.191305319,1.28412825
6.189163205,2,0.00026494,-0.001055731,,,7.892124908,1.808788703,-6.780040449,-5.836907889,2.064280504
6.189163205,2,0.00026494,-0.001055731,,,7.892138894,1.924298069,-5.725745773,-3.400983226,1.66997149
6.189163205,2,0.00026494,-0.001055731,,,7.897941721,1.329260844,-10.83549333,-15.70363641,2.987186893
6.189163205,2,0.00026494,-0.001055731,,,7.898185599,1.27312177,-11.25642142,-16.84338848,3.071191542
6.189163205,2,0.00026494,-0.001055731,,,7.903614634,0.459764827,-16.23070443,-33.01297033,4.286928292
6.189655074,2.905172463,0.000176735,-0.001339117,,,7.903713282,0.405114699,-16.49101975,-34.0906737,4.380983924
6.189655074,2.905172463,0.000176735,-0.001339117,,,7.910418726,1.634406796,-8.328263535,-9.332621525,2.430823538
6.189655074,2.905172463,0.000176735,-0.001339117,,,7.915173113,1.464360555,-9.753833708,-12.82064988,2.730361438
6.192216146,2.497955122,0.000283107,-0.001285473,,,7.915602208,1.939193366,-5.520648541,-2.821768333,1.52095805
6.192216146,2.497955122,0.000283107,-0.001285473,,,7.91756574,1.142500605,-12.1625851,-19.3579243,3.221215319
6.193401575,1.854816982,0.000273599,-0.00101523,,,7.91795267,0.973871354,-13.29159809,-22.73974652,3.466348686
6.197639945,1.709633963,0.00027793,-0.000968868,,,7.91826436,2.005524793,-2.367974753,-1.322313592,1.27548469
6.197639945,1.709633963,0.00027793,-0.000968868,,,7.919596493,0.75745312,-14.61512569,-27.03676334,3.783717034
6.19775738,2.312877431,0.00029543,-0.001218807,,,7.921762903,0.589921097,-15.54040767,-30.3401572,4.040655349
6.205214316,1.496621264,0.000276499,-0.000890149,,,7.921968783,0.107773349,-17.66809274,-39.87320204,4.916987511
6.207225915,2.125703603,0.000284717,-0.001125477,,,7.922586776,0.27517711,-17.03046966,-36.55189611,4.583583272
6.210765486,2.593151865,0.000266282,-0.001299969,,,7.923369117,2.032263268,-2.264032209,-0.692041304,1.15176763
6.210765486,2.593151865,0.000266282,-0.001299969,,,7.925745576,1.758962258,-7.155263759,-6.595977026,2.098283447
6.212788688,1.283608565,0.000265892,-0.000799281,,,7.929645607,1.721786053,-7.494038334,-7.347918468,2.180432623
6.212788688,1.283608565,0.000265892,-0.000799281,,,7.935668538,1.987036729,-5.064009578,-1.576368863,1.239857549
6.212788688,1.283608565,0.000265892,-0.000799281,,,7.939072416,0.888548023,-13.79943028,-24.31576604,3.550563318
6.212788688,1.283608565,0.000265892,-0.000799281,,,7.93942286,0.842410159,-14.08170814,-25.23331622,3.618848574
6.212788688,1.283608565,0.000265892,-0.000799281,,,7.942395418,0.022976031,-17.89566623,-41.45378439,5.060379714
6.212788688,1.283608565,0.000265892,-0.000799281,,,7.960156631,1.441907863,-9.85985725,-12.97716073,2.65009875
6.216664149,2.435274386,0.000288293,-0.001256194,,,7.961356336,1.16574411,-11.93431555,-18.61697305,3.089812148
6.216664149,2.435274386,0.000288293,-0.001256194,,,7.965272954,0.567045379,-15.58983818,-30.54808411,4.00051764
6.217657568,1.070883783,0.000246159,-0.000696915,,,7.965758232,0.29820616,-16.85425571,-35.8623081,4.463692225
6.222526447,0.858159001,0.000217183,-0.000582528,,,7.972513737,2.006558536,-2.208120405,-0.684700427,1.095489604
6.222526447,0.858159001,0.000217183,-0.000582528,,,7.973029707,1.939193366,-5.240938271,-2.256021021,1.287684875
6.22448153,0.643984355,0.000178473,-0.000455501,,,7.981745735,1.830053617,-6.293291457,-4.590634324,1.691259974
6.225288625,2.251407206,0.00029331,-0.001182234,,,7.99317441,1.984611173,-4.967440849,-0.862733873,0.849652773
6.225288625,2.251407206,0.00029331,-0.001182234,,,8.003178246,1.877690817,-5.738607521,-3.340137981,1.416195907
6.226436612,0.429809708,0.000129835,-0.000316234,,,8.004520838,1.612954821,-8.32270249,-9.093465261,2.187767644
6.226436612,0.429809708,0.000129835,-0.000316234,,,8.005421022,1.84474275,-6.03305353,-4.062010185,1.55627618
6.226436612,0.429809708,0.000129835,-0.000316234,,,8.008174238,1.000873798,-12.98139181,-21.66767585,3.241077539
6.226436612,0.429809708,0.000129835,-0.000316234,,,8.010220734,0.731441384,-14.62429193,-27.04086233,3.655512407
6.226436612,0.429809708,0.000129835,-0.000316234,,,8.011554586,0.134173692,-17.39475581,-38.87750422,4.69339042
6.226436612,0.429809708,0.000129835,-0.000316234,,,8.021630668,1.984611173,-4.566915201,-0.525597192,0.540156055
6.227627231,2.713174147,0.000236619,-0.001310074,,,8.025004726,1.924298069,-5.083161018,-2.065860304,1.095110865
6.227627231,2.713174147,0.000236619,-0.001310074,,,8.032528118,1.324890316,-10.65193805,-14.94056571,2.660749575
6.227801639,0.214904854,7.05311E-05,-0.000164244,,,8.032733556,1.277599772,-11.0088581,-15.91039704,2.74029314
6.229166667,0,0,0,,,8.03529241,0.455696704,-16.0260213,-32.37701651,4.060521159
6.235179189,2.062580055,0.000275014,-0.001081511,,,8.03537551,0.40966042,-16.24055723,-33.28847276,4.139660005
6.235179189,2.062580055,0.000275014,-0.001081511,,,8.048975766,1.924298069,-4.94140712,-1.825523901,0.935606734
6.235433797,2.76694161,0.000220068,-0.001310437,,,8.049504356,1.590502128,-8.422141525,-9.282280913,2.08845248
6.236933825,2.544676491,0.000272798,-0.001277231,,,8.051964835,1.024117303,-12.7595739,-20.95581157,3.111058818
6.236933825,2.544676491,0.000272798,-0.001277231,,,8.052349433,1.414213152,-9.914622753,-12.97269349,2.442874476
6.243240363,2.820709073,0.000201504,-0.001308286,,,8.053313081,1.192388054,-11.59838718,-17.5361546,2.833695469
6.244195394,2.373804162,0.000290924,-0.001224329,,,8.053730785,0.708565665,-14.68414571,-27.26285783,3.609430474
6.251046929,2.874476535,0.00018092,-0.001303612,,,8.054726042,0.157202743,-17.22988498,-38.20060979,4.565764972
6.2532419,2.188283658,0.000288782,-0.00114316,,,8.055303588,0.540743938,-15.575842,-30.58765621,3.880734265
6.253795569,2.664698773,0.000246613,-0.001290816,,,8.055693381,0.32480218,-16.57885513,-34.86635122,4.252376757
6.261210579,1.92833937,0.000268041,-0.001018777,,,8.062009185,1.769417587,-6.657163862,-5.319916306,1.567492433
6.261210579,1.92833937,0.000268041,-0.001018777,,,8.06400273,1.84474275,-5.812938022,-3.613971322,1.280117602
6.262119308,2,0.000262937,-0.001036494,,,8.06663895,1.725285346,-7.098806121,-6.268365414,1.682340631
6.262119308,2,0.000262937,-0.001036494,,,8.071432945,0.893477962,-13.56485702,-23.47799261,3.278803411
6.263102164,2.496201117,0.000278024,-0.001253668,,,8.07184896,0.838707248,-13.89845978,-24.57194468,3.365736253
6.263102164,2.496201117,0.000278024,-0.001253668,,,8.073617246,0.027275074,-17.6037805,-40.70259731,4.78716408
6.263102164,2.496201117,0.000278024,-0.001253668,,,8.075652808,1.987036729,-3.532076451,-0.233976038,0.146013513
6.263102164,2.496201117,0.000278024,-0.001253668,,,8.08547033,1.939193366,-4.393815783,-1.301238433,0.57784837
6.263102164,2.496201117,0.000278024,-0.001253668,,,8.08797377,1.84474275,-5.702020736,-3.48064794,1.149530345
6.263102164,2.496201117,0.000278024,-0.001253668,,,8.090114352,1.786855203,-6.391169703,-4.775918348,1.380992259
6.265448949,1.783156351,0.000274916,-0.00097686,,,8.115618869,1.877690817,-5.194006977,-2.601043796,0.858786995
6.27135532,1.604058492,0.000277362,-0.000916975,,,8.118570611,1.786855203,-6.271862713,-4.627669054,1.260019145
6.271726639,2.312333937,0.000291346,-0.001190896,,,8.120039328,1.698631533,-7.209708733,-6.553429951,1.55687392
6.278929691,1.391045793,0.000271691,-0.000834323,,,8.121422286,1.529088264,-8.803943562,-10.18294887,1.999024182
6.278929691,1.391045793,0.000271691,-0.000834323,,,8.123360612,1.082899338,-12.2467115,-19.39086707,2.854817787
6.279963908,2.6162234,0.000255341,-0.001270729,,,8.123417195,0.921070557,-13.30854645,-22.65710821,3.126331721
6.281195174,2.12516011,0.000281817,-0.001102424,,,8.123500172,0.811551256,-13.97729107,-24.85186702,3.306645094
6.281195174,2.12516011,0.000281817,-0.001102424,,,8.123688483,0.650150305,-14.89144014,-28.06937928,3.572058166
6.282466045,1.177253634,0.000256729,-0.000739789,,,8.12447253,0.215795395,-16.88743503,-36.6932532,4.322259089
6.282466045,1.177253634,0.000256729,-0.000739789,,,8.124866509,0.054613087,-17.42286998,-39.90920564,4.627697549
6.287334925,0.964528852,0.000232552,-0.000633344,,,8.141770306,1.939193366,-4.031089476,-1.201580835,0.386953954
6.290633408,2.434730893,0.00028318,-0.001224981,,,8.145405292,1.84474275,-5.429426709,-3.221152484,0.906484119
6.290633408,2.434730893,0.00028318,-0.001224981,,,8.147716863,1.786855203,-6.153163246,-4.49129754,1.14386931
6.290746906,0.751079138,0.000198881,-0.000514563,,,8.148478448,1.987036729,-2.943574535,-0.241072957,0.048034875
6.292701989,0.536904491,0.00015535,-0.000383238,,,8.169957569,1.84474275,-5.338393797,-3.153633882,0.7999394
6.292701989,0.536904491,0.00015535,-0.000383238,,,8.173813432,1.725315006,-6.75507264,-5.733041299,1.271220893
6.294827459,0.322357281,0.00010152,-0.000239339,,,8.175041198,0.838933591,-13.72750477,-24.05317512,3.157268434
6.294827459,0.322357281,0.00010152,-0.000239339,,,8.175374236,0.893682177,-13.39184856,-22.95383508,3.063898737
6.296192486,0.107452427,3.67266E-05,-8.29E-05,,,8.176249262,0.027338013,-17.39955704,-40.21797707,4.574907897
6.296825652,2.736245682,0.000222623,-0.001275412,,,8.177664472,1.769406435,-6.235746352,-4.758876923,1.097439096
6.296825652,2.736245682,0.000222623,-0.001275412,,,8.179232928,1.924298069,-4.034549273,-1.434576121,0.356784141
6.299257884,2.250863713,0.000289524,-0.001155894,,,8.192328379,0.540995481,-15.34403393,-29.91304539,3.625955102
6.299257884,2.250863713,0.000289524,-0.001155894,,,8.192336958,1.590668513,-8.064101598,-8.543863424,1.61778065
6.304632219,2.790013145,0.000204676,-0.001273328,,,8.192367871,1.414376259,-9.625971294,-12.24719142,2.045057046
6.306132247,2.567748026,0.000262792,-0.001249813,,,8.192718171,0.325053723,-16.33472246,-34.20141957,3.997410119
6.306132247,2.567748026,0.000262792,-0.001249813,,,8.19333152,1.19255116,-11.34774799,-16.81962466,2.49235815
6.308135293,2.062580055,0.000272494,-0.00106062,,,8.193509571,0.708822264,-14.4524532,-26.56711023,3.34007808
6.312438785,2.843780608,0.000184702,-0.001268722,,,8.194504828,0.157459341,-16.96601901,-37.53048617,4.294106977
6.318164653,2.373260668,0.00028615,-0.001194717,,,8.194797437,1.024283687,-12.5175087,-20.23207939,2.796088791
6.318164653,2.373260668,0.00028615,-0.001194717,,,8.202658226,1.984611173,-2.795738697,-0.272287849,0.047692923
6.322993991,2.687770308,0.000233568,-0.001257995,,,8.203785206,1.924298069,-3.918073291,-1.432980101,0.309115095
6.327211158,2.187740165,0.000285297,-0.001118422,,,8.212537924,0.456022082,-15.72095839,-31.50927667,3.733269518
6.327211158,2.187740165,0.000285297,-0.001118422,,,8.212621023,0.409985797,-15.93215027,-32.4234998,3.812334838
6.333257954,1.856678739,0.000270232,-0.000981758,,,8.213646001,1.325101299,-10.30359166,-14.00680523,2.178576375
6.333257954,1.856678739,0.000270232,-0.000981758,,,8.21385144,1.277810755,-10.67010342,-14.97960493,2.275346503
6.334166683,1.92833937,0.000266015,-0.001000207,,,8.230785896,1.877690817,-4.565038181,-2.350766206,0.469988659
6.335075412,2,0.000260689,-0.001017144,,,8.231352307,1.84474275,-5.047261886,-3.019192884,0.608645669
6.335075412,2,0.000260689,-0.001017144,,,8.231804478,1.984611173,-2.692231546,-0.273120326,0.045257836
6.33606094,2.496793522,0.000272068,-0.001221431,,,8.236926803,0.73188865,-14.24871918,-25.9105787,3.215996339
6.33606094,2.496793522,0.000272068,-0.001221431,,,8.237635294,1.61314619,-7.719885505,-7.889398334,1.407864554
6.337496324,1.711495721,0.00027527,-0.000938431,,,8.237788734,0.13448331,-16.96414694,-37.79704377,4.250420464
6.337496324,1.711495721,0.00027527,-0.000938431,,,8.238565113,1.00121221,-12.59316701,-20.50168579,2.741418165
6.345070695,1.498483022,0.000274658,-0.000864092,,,8.256579634,1.830044222,-5.14720091,-3.290447465,0.601394527
6.345070695,1.498483022,0.000274658,-0.000864092,,,8.256937333,1.939193366,-3.447720288,-1.117684144,0.174894075
6.345695898,2.311790444,0.000286902,-0.001162875,,,8.282297254,0.567627355,-15.05597652,-28.9857572,3.411019532
6.345695898,2.311790444,0.000286902,-0.001162875,,,8.282782531,0.298788136,-16.28480423,-34.32775223,3.873297231
6.348614684,1.28455059,0.000264659,-0.000777783,,,8.284107116,1.442285231,-9.175247421,-11.30131188,1.723852717
6.348614684,1.28455059,0.000264659,-0.000777783,,,8.285306822,1.166121478,-11.36171614,-16.96445824,2.324096229
6.34916233,2.639294935,0.000243246,-0.001239747,,,8.291856986,1.987036729,-2.490417775,-0.236880656,0.026941111
6.34916233,2.639294935,0.000243246,-0.001239747,,,8.30727546,0.843267005,-13.47145299,-23.38515138,2.881430076
6.352143403,1.070898704,0.00024527,-0.00067918,,,8.307492132,0.02302905,-17.16870063,-39.73535828,4.306995142
6.352143403,1.070898704,0.00024527,-0.00067918,,,8.307556005,0.889386229,-13.18626863,-22.45962157,2.79789285
6.354151278,2.12516011,0.000278726,-0.00107986,,,8.314034161,1.72176557,-6.309038041,-5.419551813,0.847887239
6.357012283,0.858173922,0.000216587,-0.000568634,,,8.317122439,1.939193366,-3.265860311,-1.108866939,0.1237838
6.357012283,0.858173922,0.000216587,-0.000568634,,,8.317278208,1.758907396,-5.859953335,-4.654926158,0.714887896
6.358967365,0.643999275,0.000178114,-0.000445349,,,8.325714486,0.590693741,-14.86236984,-28.34703482,3.289361172
6.358967365,0.643999275,0.000178114,-0.000445349,,,8.326066437,0.275812105,-16.30093183,-34.60510739,3.830594717
6.361569092,0.429827179,0.000129656,-0.000309635,,,8.327345088,0.75834748,-13.93974769,-25.00100433,2.992864118
6.361569092,0.429827179,0.000129656,-0.000309635,,,8.327503747,0.108022046,-16.88942241,-37.94804749,4.117259326
6.363218306,0.214904854,7.04751E-05,-0.000161047,,,8.32866104,0.974678279,-12.60144976,-20.66357143,2.596669067
6.363218306,0.214904854,7.04751E-05,-0.000161047,,,8.329074498,1.14305,-11.44056249,-17.26216908,2.269015846
6.363592185,2.435323297,0.00027763,-0.001194382,,,8.329405453,1.464762908,-8.862895302,-10.68450283,1.547409299
6.364583333,0,0,0,,,8.333902561,1.63452399,-7.211530434,-7.172537179,1.068078034
6.366024074,2.759317217,0.000207434,-0.001238992,,,8.343031112,1.924298069,-3.444498113,-1.39060674,0.147596105
6.366024074,2.759317217,0.000207434,-0.001238992,,,8.344205643,0.460573641,-15.47334929,-30.85857468,3.479215467
6.373227143,2.25032022,0.000285402,-0.001129454,,,8.344304292,0.405923512,-15.72359645,-31.94398176,3.572905966
6.373227143,2.25032022,0.000285402,-0.001129454,,,8.34815854,1.329785298,-9.969894775,-13.39224973,1.824133154
6.373227143,2.25032022,0.000285402,-0.001129454,,,8.348402418,1.273646225,-10.41807893,-14.53800201,1.949590262
6.373227143,2.25032022,0.000285402,-0.001129454,,,8.349119366,1.808744636,-5.115769898,-3.612570345,0.483605958
6.373227143,2.25032022,0.000285402,-0.001129454,,,8.368258439,1.909599541,-3.613245465,-1.660195017,0.166232187
6.373227143,2.25032022,0.000285402,-0.001129454,,,8.369708154,1.987036729,-2.357050992,-0.236880554,0.019603501
6.37383064,2.81308468,0.000188077,-0.001234455,,,8.395687045,0.378648438,-15.7563618,-32.28569492,3.523472845
6.379091023,2.56834043,0.000255911,-0.001215497,,,8.395746669,0.487955976,-15.25485354,-30.11436317,3.336089425
6.381091397,2.062580055,0.000269708,-0.001039619,,,8.395749389,0.217280374,-16.40407139,-35.49587465,3.796483786
6.39112343,2.373853073,0.000280997,-0.001165747,,,8.395984984,0.649192656,-14.42967206,-26.90969638,3.054498722
6.392192413,2.710841843,0.000219342,-0.001223427,,,8.398631948,1.084330101,-11.71953796,-18.20064486,2.234870468
6.392192413,2.710841843,0.000219342,-0.001223427,,,8.40035946,1.246257846,-10.51801461,-14.92594074,1.889583583
6.400167262,2.187740165,0.000281585,-0.001094168,,,8.401932643,1.356468771,-9.624960408,-12.68577019,1.635318192
6.400167262,2.187740165,0.000281585,-0.001094168,,,8.404848146,1.519811986,-8.163184256,-9.357144065,1.218696812
6.405305328,1.785018109,0.000271474,-0.000944687,,,8.425324327,1.984611173,-2.334457346,-0.278152678,0.012645703
6.405305328,1.785018109,0.000271474,-0.000944687,,,8.435455909,1.870247186,-4.023617671,-2.387097006,0.201778989
6.406214057,1.856678739,0.000268173,-0.000963867,,,8.446931165,0.406072693,-15.54762341,-31.55063667,3.381372768
6.407122787,1.92833937,0.000263751,-0.00098154,,,8.447089437,0.460730101,-15.29583158,-30.46525115,3.28774101
6.408031516,2,0.000258202,-0.000997695,,,8.452499254,1.273257175,-10.18756078,-14.2264286,1.714270624
6.408031516,2,0.000258202,-0.000997695,,,8.454316316,1.327329027,-9.745589222,-13.13271214,1.586448441
6.409019717,2.497385926,0.000265696,-0.001189031,,,8.455271936,1.967162405,-2.572321395,-0.594008665,0.025724412
6.409019717,2.497385926,0.000265696,-0.001189031,,,8.464079453,0.108022046,-16.66193015,-37.42379779,3.841533945
6.411211699,1.60592025,0.000274706,-0.00088853,,,8.464947594,0.758376576,-13.69076855,-24.49303004,2.727864759
6.411211699,1.60592025,0.000274706,-0.00088853,,,8.465387113,0.275812105,-16.06575912,-34.07267143,3.565649556
6.414755688,1.391987818,0.000269791,-0.0008106,,,8.466082598,0.590723421,-14.61677283,-27.81866371,3.026902473
6.418292042,1.178195659,0.00025536,-0.000720196,,,8.466263545,0.974707375,-12.33627274,-20.1770618,2.314528348
6.418654675,2.312382849,0.00028214,-0.001135525,,,8.469442611,1.143079681,-11.14910369,-16.79663181,1.963986266
6.418654675,2.312382849,0.00028214,-0.001135525,,,8.478175806,1.456364741,-8.563863538,-10.47969675,1.222239457
6.421820761,0.964543773,0.000231485,-0.000617453,,,8.479741762,1.626291289,-6.887223217,-7.086432079,0.778646386
6.421820761,0.964543773,0.000231485,-0.000617453,,,8.484156741,0.02302905,-16.87686007,-39.05625047,3.934145273
6.422121106,2.639887339,0.000235399,-0.001203338,,,8.485268264,0.843304642,-13.14241079,-22.73633193,2.531333824
6.425232742,0.751094058,0.00019812,-0.000502491,,,8.48554881,0.889423865,-12.85353264,-21.81769387,2.443023946
6.425232742,0.751094058,0.00019812,-0.000502491,,,8.49297297,1.982551232,-2.313610584,-0.315228063,0.011337811
6.427107382,2.12516011,0.00027535,-0.001057193,,,8.494958567,1.800511935,-4.815822701,-3.686971285,0.308242686
6.427107382,2.12516011,0.00027535,-0.001057193,,,8.502681369,1.711116334,-5.884692469,-5.395949076,0.514383814
6.427834469,0.536921963,0.000154853,-0.000374816,,,8.505925416,1.74825816,-5.436709832,-4.676714718,0.418665143
6.429959939,0.322374752,0.000101257,-0.000234454,,,8.508554237,0.298913803,-15.90229382,-33.46242961,3.446284574
6.431609153,0.107452427,3.66517E-05,-8.13E-05,,,8.509332821,0.567788835,-14.66003188,-28.12722406,2.988072803
6.431609153,0.107452427,3.66517E-05,-8.13E-05,,,8.513364234,1.16582343,-10.88600984,-16.21871496,1.826012427
6.435222496,2.782388752,0.000191042,-0.00120082,,,8.517028793,1.901201375,-3.446704043,-1.794186253,0.096891033
6.435222496,2.782388752,0.000191042,-0.00120082,,,8.522302869,1.431817946,-8.6765385,-10.88163602,1.194206491
6.435222496,2.782388752,0.000191042,-0.00120082,,,8.548787465,1.914164646,-3.224189041,-1.557359392,0.069024424
6.435222496,2.782388752,0.000191042,-0.00120082,,,8.553720338,1.985301472,-2.236879938,-0.264758052,0.005544874
6.436550962,2.435915702,0.000271682,-0.00116363,,,8.553774019,0.13448331,-16.43638703,-36.58437571,3.621760238
6.448375902,2.25140578,0.000280892,-0.001103115,,,8.55528772,0.731955967,-13.67851092,-24.72909043,2.609702643
6.448375902,2.25140578,0.000280892,-0.001103115,,,8.55692603,1.001279527,-11.97491045,-19.38147734,2.086340077
6.4520498,2.568932835,0.0002486,-0.001181024,,,8.575052856,1.594098787,-6.978013613,-7.602573036,0.702119247
6.454047501,2.062580055,0.000266661,-0.001018525,,,8.578150549,0.410719658,-15.30525581,-31.01695416,3.133435316
6.454047501,2.062580055,0.000266661,-0.001018525,,,8.578283874,0.456762075,-15.09043615,-30.10481791,3.055536178
6.464082207,2.374445478,0.000275467,-0.001136635,,,8.584425872,1.93105382,-2.957835914,-1.247192698,0.041923517
6.464082207,2.374445478,0.000275467,-0.001136635,,,8.585564682,1.27586723,-9.864421641,-13.85942195,1.443661019
6.46515119,2.711434248,0.000210493,-0.001184913,,,8.587095343,1.321416384,-9.484305154,-12.95332135,1.335697131
6.46515119,2.711434248,0.000210493,-0.001184913,,,8.593997196,1.81099682,-4.49042267,-3.45515173,0.207141241
6.475316021,2.188825725,0.000277497,-0.001069525,,,8.596941143,0.157585008,-16.29273425,-35.98391561,3.502593385
6.477352703,1.713357478,0.000271735,-0.000907582,,,8.598232815,0.325643188,-15.64574078,-32.6399947,3.236922026
6.477352703,1.713357478,0.000271735,-0.000907582,,,8.598537943,0.709021381,-13.73082074,-25.05559457,2.574538313
6.477352703,1.713357478,0.000271735,-0.000907582,,,8.598858203,0.541613712,-14.63740272,-28.36399156,2.873140204
6.477352703,1.713357478,0.000271735,-0.000907582,,,8.600847654,1.024023276,-11.7279451,-18.81657597,1.95923258
6.477352703,1.713357478,0.000271735,-0.000907582,,,8.604654498,1.191013888,-10.49484962,-15.50033029,1.598032285
6.477352703,1.713357478,0.000271735,-0.000907582,,,8.611834345,1.404670674,-8.70603069,-11.26786483,1.100312136
6.477352703,1.713357478,0.000271735,-0.000907582,,,8.615396281,0.027338013,-16.67329371,-38.52882565,3.654833403
6.478261432,1.785018109,0.000269372,-0.000927488,,,8.617489799,0.839027146,-12.91687021,-22.43370418,2.296963441
6.478261432,1.785018109,0.000269372,-0.000927488,,,8.617822837,0.893775732,-12.56836954,-21.35028709,2.190156515
6.479170161,1.856678739,0.000265881,-0.000945894,,,8.619179918,1.569551992,-7.126922033,-8.041063676,0.69938326
6.479170161,1.856678739,0.000265881,-0.000945894,,,8.625755868,1.823960091,-4.274104065,-3.209223285,0.165557417
6.480078891,1.92833937,0.000261253,-0.00096279,,,8.636943834,1.985301472,-2.205546019,-0.26482918,0.003194886
6.480078891,1.92833937,0.000261253,-0.00096279,,,8.642746395,1.698843488,-5.705467705,-5.549424736,0.385613999
6.480896691,1.499425046,0.000272037,-0.000838123,,,8.64392853,1.861318569,-3.787670276,-2.518244676,0.103856702
6.48098762,2,0.000255479,-0.000978162,,,8.646597435,1.742934917,-5.197363889,-4.716129151,0.295532053
6.48098762,2,0.000255479,-0.000978162,,,8.648764212,1.93105382,-2.903469137,-1.245365626,0.031005776
6.48098762,2,0.000255479,-0.000978162,,,8.666562879,0.216384859,-15.97559894,-34.60221404,3.282287794
6.48098762,2,0.000255479,-0.000978162,,,8.6666404,0.054762268,-16.52387313,-37.82226483,3.513467586
6.48098762,2,0.000255479,-0.000978162,,,8.667820813,0.650797632,-13.9338564,-26.01427394,2.560105011
6.481978494,2.497978331,0.000258912,-0.001156485,,,8.668832567,0.811801272,-12.98771014,-22.83927038,2.260151947
6.481978494,2.497978331,0.000258912,-0.001156485,,,8.669962632,0.920775062,-12.28946762,-20.68966007,2.046673874
6.48444068,1.285492615,0.000262657,-0.000756007,,,8.672286095,1.081391162,-11.17163242,-17.52144264,1.715521534
6.48444068,1.285492615,0.000262657,-0.000756007,,,8.684298469,1.758323744,-4.953710644,-4.415141731,0.240092155
6.487969399,1.071840728,0.000243759,-0.000661508,,,8.686727961,1.511149978,-7.547279171,-9.103324444,0.743594567
6.491498118,0.858188842,0.000215356,-0.000554594,,,8.691387314,1.823960091,-4.178192377,-3.199482946,0.135607607
6.491498118,0.858188842,0.000215356,-0.000554594,,,8.695130067,1.669703745,-5.914220438,-6.071262742,0.397948366
6.491498118,0.858188842,0.000215356,-0.000554594,,,8.697642408,1.914164646,-3.078044394,-1.55075539,0.03654565
6.491498118,0.858188842,0.000215356,-0.000554594,,,8.699847175,1.982551232,-2.225294483,-0.314182711,0.002433929
6.491498118,0.858188842,0.000215356,-0.000554594,,,8.717606147,1.758323744,-4.899039609,-4.407221161,0.220958711
6.491498118,0.858188842,0.000215356,-0.000554594,,,8.717910786,0.027424254,-16.53713017,-38.21911617,3.446507507
6.493803434,2.313468409,0.000276845,-0.001107362,,,8.719445102,1.823960091,-4.140685073,-3.195568119,0.124779874
6.494099845,0.644016746,0.000177219,-0.000435048,,,8.720075661,0.839262652,-12.71797315,-22.1773985,2.121900667
6.495079883,2.640479744,0.000227108,-0.001166776,,,8.720872688,0.893487856,-12.36854807,-21.11113447,2.015519107
6.495079883,2.640479744,0.000227108,-0.001166776,,,8.725700197,1.914164646,-3.057718753,-1.550042872,0.032577553
6.495171774,2.752414113,0.000193539,-0.001168593,,,8.733154853,1.982551232,-2.218732831,-0.314127595,0.001872001
6.496701572,0.429844651,0.000129079,-0.000302975,,,8.734787967,0.325987856,-15.42754563,-32.24190328,2.991679512
6.496701572,0.429844651,0.000129079,-0.000302975,,,8.735413355,0.54195838,-14.39961954,-27.98347556,2.637282335
6.498350786,0.214922325,7.02038E-05,-0.000157843,,,8.736240852,0.157936603,-16.08890794,-35.56637467,3.237283961
6.5,0,0,0,,,8.737837653,0.709372976,-13.47316093,-24.68745052,2.336431853
6.5,0,0,0,,,8.742038994,1.022241094,-11.45126152,-18.54341974,1.724275094
6.5,0,0,0,,,8.743064011,1.189266821,-10.20811641,-15.27815903,1.374256143
6.50225614,2.126245671,0.000271679,-0.001034233,,,8.748466887,1.695662255,-5.537387074,-5.564510132,0.309030954
6.509509739,2.436508107,0.00026534,-0.001132742,,,8.750243858,1.402923606,-8.408810616,-11.12470976,0.902015143
6.509509739,2.436508107,0.00026534,-0.001132742,,,8.750993544,1.740190826,-5.047553358,-4.734817347,0.232113708
6.52352466,2.252491341,0.000276022,-0.00107662,,,8.754788572,0.411165496,-15.01254984,-30.50957299,2.822383806
6.52352466,2.252491341,0.000276022,-0.00107662,,,8.754921897,0.457207913,-14.79272538,-29.60265862,2.747199012
6.525008577,2.56952524,0.00024086,-0.001146408,,,8.760371259,1.567769811,-6.835892516,-7.963624161,0.541874932
6.525008577,2.56952524,0.00024086,-0.001146408,,,8.764601375,1.273607347,-9.48577913,-13.60619187,1.161949259
6.525100468,2.681459609,0.000212148,-0.001153,,,8.766132036,1.319156502,-9.102266055,-12.72299807,1.061965582
6.529196259,2.063665616,0.0002634,-0.000997236,,,8.775538807,1.861318569,-3.64305089,-2.50782949,0.068185281
6.529196259,2.063665616,0.0002634,-0.000997236,,,8.779430102,0.134907553,-16.11195949,-35.90866201,3.188139153
6.539230966,2.375531039,0.00026934,-0.001106632,,,8.780374489,1.93105382,-2.823372338,-1.243184338,0.017011326
6.547037695,1.606862275,0.00027131,-0.000860299,,,8.781003913,0.732505948,-13.25788956,-24.13623677,2.224357907
6.547037695,1.606862275,0.00027131,-0.000860299,,,8.784924709,0.999254843,-11.52604827,-18.91284898,1.704577205
6.548265153,1.785018109,0.00026714,-0.000910921,,,8.789605622,1.823960091,-4.056368904,-3.187911658,0.103166565
6.548265153,1.785018109,0.00026714,-0.000910921,,,8.800793589,1.985301472,-2.176563688,-0.264656058,0.000691058
6.549173882,1.856678739,0.000263468,-0.000928585,,,8.805301236,1.589636793,-6.531414348,-7.527518083,0.460727301
6.550082611,1.92833937,0.000258641,-0.000944734,,,8.817730564,1.808685247,-4.196861295,-3.464971622,0.112677322
6.55046478,2.189911286,0.000273074,-0.001044736,,,8.824491969,0.299711237,-15.40475464,-32.53513689,2.875849112
6.550581684,1.392929843,0.000267106,-0.000786616,,,8.825270553,0.568586269,-14.1052972,-27.25052778,2.4449475
6.550991341,2,0.00025265,-0.000959355,,,8.833592268,1.161781366,-10.23178028,-15.67821597,1.303554172
6.550991341,2,0.00025265,-0.000959355,,,8.842530902,1.427775882,-7.993265609,-10.5642214,0.744843468
6.554118038,1.179137684,0.000253239,-0.000700382,,,8.849152669,1.93105382,-2.7927353,-1.242588406,0.012683919
6.554937271,2.498570736,0.00025172,-0.001123805,,,8.849154466,0.023101698,-16.39412616,-37.95518737,3.193167173
6.554937271,2.498570736,0.00025172,-0.001123805,,,8.850617013,0.844111565,-12.43808121,-21.81802579,1.909559381
6.554937271,2.498570736,0.00025172,-0.001123805,,,8.851288414,0.889789901,-12.13940845,-20.92756639,1.821333235
6.554937271,2.498570736,0.00025172,-0.001123805,,,8.867681219,0.276682186,-15.43977167,-32.88812529,2.835484113
6.554937271,2.498570736,0.00025172,-0.001123805,,,8.868436814,0.591719241,-13.90626841,-26.70701669,2.337783982
6.554937271,2.498570736,0.00025172,-0.001123805,,,8.869150093,0.108362814,-16.09022581,-36.21161731,3.056109992
6.555029162,2.610505105,0.000227907,-0.001135174,,,8.870300189,0.759307142,-12.93261331,-23.43346836,2.038178969
6.555121053,2.722439473,0.000195644,-0.001136982,,,8.87344952,0.973569874,-11.52948639,-19.26415818,1.627794582
6.557646757,0.965485798,0.00022984,-0.000601712,,,8.876477983,1.138795115,-10.32076561,-16.06598606,1.29476945
6.557646757,0.965485798,0.00022984,-0.000601712,,,8.881558606,1.697249144,-5.308883194,-5.499798807,0.234528634
6.560365222,0.75111153,0.000196757,-0.00049026,,,8.883687016,1.73475921,-4.915188955,-4.810423829,0.182928076
6.560365222,0.75111153,0.000196757,-0.00049026,,,8.884827273,1.914164646,-2.967337254,-1.547280289,0.018228939
6.562966949,0.536939434,0.000153878,-0.000366328,,,8.886012095,0.407180942,-14.82417285,-30.2827588,2.610989897
6.565092419,0.322392224,0.000100674,-0.000229534,,,8.886170368,0.461838351,-14.55687311,-29.21114724,2.524899625
6.566741633,0.107469898,3.64645E-05,-7.97E-05,,,8.887460879,1.449642864,-7.706095749,-10.11804976,0.659034767
6.566741633,0.107469898,3.64645E-05,-7.97E-05,,,8.889760146,1.985301472,-2.170877189,-0.264640491,5.57263E-05
6.568952192,2.31455397,0.000271169,-0.001079048,,,8.897480377,1.613721126,-6.129418189,-7.041121744,0.356244438
6.577404899,2.127331231,0.000267699,-0.001011138,,,8.897542718,1.267639634,-9.258765577,-13.56942584,1.009478737
6.577404899,2.127331231,0.000267699,-0.001011138,,,8.89935978,1.321711486,-8.803937631,-12.53588677,0.899585784
6.584658498,2.437593668,0.000258337,-0.001100883,,,8.90746408,1.789669071,-4.306168739,-3.803538752,0.111048223
6.584658498,2.437593668,0.000258337,-0.001100883,,,8.912952215,1.898889802,-3.121768209,-1.822438351,0.024014394
6.584957856,2.539550601,0.000240791,-0.001115111,,,8.937282482,0.379842929,-14.87624189,-30.71264443,2.57051874
6.584957856,2.539550601,0.000240791,-0.001115111,,,8.937375181,0.21796581,-15.58847173,-33.89171803,2.79750844
6.585049747,2.651484969,0.000213409,-0.001121705,,,8.937413462,0.489299731,-14.33596082,-28.57155968,2.401331967
6.598673419,2.253576902,0.000270795,-0.001049986,,,8.937892732,0.65046789,-13.45747503,-25.42938035,2.132831861
6.598673419,2.253576902,0.000270795,-0.001049986,,,8.944227436,1.081445532,-10.61738402,-17.08529674,1.324843149
6.59919998,2.063665616,0.000259983,-0.000976832,,,8.948452775,1.240352428,-9.379508107,-14.04111164,1.008811563
6.613887192,1.714174809,0.000267491,-0.000876889,,,8.9526966,1.347669997,-8.479073249,-12.00082274,0.796457068
6.613887192,1.714174809,0.000267491,-0.000876889,,,8.954304965,1.982551232,-2.198800534,-0.314044952,-0.000302855
6.614379724,2.376616599,0.000262812,-0.001076483,,,8.960996275,1.505494755,-7.057897454,-9.031646998,0.500076558
6.614379724,2.376616599,0.000262812,-0.001076483,,,8.981077942,1.859404322,-3.505300029,-2.534561746,0.042092558
6.614978441,2.580530465,0.000228314,-0.00110419,,,8.987692362,1.964418314,-2.390652183,-0.640513423,0.001127777
6.614978441,2.580530465,0.000228314,-0.00110419,,,8.988311002,0.462402815,-14.39369314,-29.00159825,2.366340275
6.615070332,2.692464834,0.000197359,-0.001105993,,,8.988338294,0.407603422,-14.66684094,-30.07106818,2.449360552
6.616722688,1.500367071,0.000268625,-0.000811915,,,8.999414926,1.267271919,-9.062726569,-13.48740873,0.906663723
6.616722688,1.500367071,0.000268625,-0.000811915,,,9.001841689,1.320517636,-8.616872716,-12.47980718,0.804422453
6.619177603,1.856678739,0.000260848,-0.000911226,,,9.005725799,0.108362814,-15.93252691,-35.91094249,2.812095612
6.619177603,1.856678739,0.000260848,-0.000911226,,,9.006134278,0.759874594,-12.68457706,-23.19738472,1.846882312
6.620086332,1.92833937,0.000255823,-0.000926628,,,9.007000967,0.592298098,-13.67037647,-26.44177923,2.131859828
6.620266677,1.28643464,0.000259881,-0.000734025,,,9.007001895,0.276682186,-15.24792015,-32.59803906,2.605043161
6.620266677,1.28643464,0.000259881,-0.000734025,,,9.009283609,0.974137326,-11.26552439,-19.06700352,1.452373656
6.620995061,2,0.000249614,-0.000940498,,,9.015042136,1.139373972,-10.04458063,-15.90216932,1.133842567
6.620995061,2,0.000249614,-0.000940498,,,9.024508483,1.981867082,-2.20388439,-0.326461644,-0.000232256
6.623795396,1.072782753,0.000241516,-0.000643667,,,9.025819075,0.023101698,-16.21458132,-37.55575447,2.863117039
6.623795396,1.072782753,0.000241516,-0.000643667,,,9.02632232,0.844845581,-12.10805189,-21.53005371,1.669131842
6.625613538,2.190996847,0.000268322,-0.001019818,,,9.026993721,0.890523916,-11.80511946,-20.65077172,1.585565459
6.625613538,2.190996847,0.000268322,-0.001019818,,,9.028510723,1.446853653,-7.475215881,-10.09626482,0.557717353
6.626910172,0.858743097,0.000213547,-0.000540635,,,9.035751181,1.61098687,-5.946597739,-7.055117253,0.295748581
6.626910172,0.858743097,0.000213547,-0.000540635,,,9.045734885,1.786934815,-4.203103577,-3.843662698,0.09037376
6.629232325,0.644034218,0.000175773,-0.000424681,,,9.049876138,0.56964062,-13.72687563,-26.81279983,2.108572125
6.629232325,0.644034218,0.000175773,-0.000424681,,,9.050010392,0.300067126,-15.08609366,-32.06078566,2.505982063
6.631834053,0.429862122,0.000128091,-0.000296277,,,9.054002059,1.896100591,-3.086320318,-1.870808864,0.01925358
6.631834053,0.429862122,0.000128091,-0.000296277,,,9.057971734,1.162050466,-9.789935845,-15.43362639,1.048749421
6.633483266,0.214939797,6.97045E-05,-0.000154623,,,9.060415874,1.693712305,-5.115017755,-5.537500714,0.182301371
6.633483266,0.214939797,6.97045E-05,-0.000154623,,,9.062544284,1.731222371,-4.743464173,-4.853820247,0.140543986
6.635416667,0,0,0,,,9.069909661,1.423980993,-7.606461871,-10.50402927,0.570483088
6.643498455,2.510280301,0.000240344,-0.001085146,,,9.085015296,1.910799119,-2.924229941,-1.60574601,0.013107225
6.643498455,2.510280301,0.000240344,-0.001085146,,,9.094060979,1.984725156,-2.172807769,-0.274915039,-0.000297407
6.644100951,2.315639531,0.000265116,-0.001050599,,,9.095273373,0.733818821,-12.69136824,-23.57688386,1.77756338
6.644100951,2.315639531,0.000265116,-0.001050599,,,9.095415387,0.134907553,-15.73373095,-35.21686116,2.631696454
6.644999026,2.62151033,0.000214281,-0.001091034,,,9.099194169,1.000567716,-10.91347483,-18.46474363,1.303571306
6.644999026,2.62151033,0.000214281,-0.001091034,,,9.118816003,0.459405814,-14.21296605,-28.84528001,2.18177531
6.647408619,2.127331231,0.000263644,-0.000989123,,,9.118838992,0.413243792,-14.449471,-29.7413424,2.248150771
6.669203701,2.063665616,0.000256342,-0.000956385,,,9.125208348,1.583310743,-6.083603759,-7.545461262,0.302210283
6.673219682,2.449303233,0.000247944,-0.001064631,,,9.126551304,1.928350502,-2.735318768,-1.289461919,0.007667221
6.67351904,2.551260166,0.000228337,-0.001074538,,,9.127175011,1.271219595,-8.798544571,-13.32913636,0.793814718
6.673822178,2.254662463,0.000265217,-0.001023228,,,9.129219273,1.316072828,-8.426863287,-12.48923279,0.715180359
6.673822178,2.254662463,0.000265217,-0.001023228,,,9.137637676,1.802359197,-3.977483478,-3.560798098,0.069630987
6.673822178,2.254662463,0.000265217,-0.001023228,,,9.138148544,0.711161343,-12.75843563,-23.95896878,1.762902011
6.673822178,2.254662463,0.000265217,-0.001023228,,,9.138423884,0.158292493,-15.59369747,-34.68345674,2.537122557
6.673822178,2.254662463,0.000265217,-0.001023228,,,9.1390067,0.544188776,-13.72804676,-27.17521044,2.027735661
6.673822178,2.254662463,0.000265217,-0.001023228,,,9.139114538,0.327657221,-14.8408725,-31.37440889,2.334905482
6.675019611,2.662490195,0.000198688,-0.001075632,,,9.142123767,1.02324421,-10.6738982,-17.99471524,1.219721853
6.675019611,2.662490195,0.000198688,-0.001075632,,,9.145596706,1.187813848,-9.431255095,-14.88374089,0.925466888
6.683572184,1.607679605,0.000267105,-0.000831674,,,9.155185697,1.398206285,-7.690675927,-10.94954908,0.563584109
6.684799642,1.785835439,0.000262159,-0.000878677,,,9.156838076,0.841087244,-11.90350697,-21.44880498,1.522500231
6.68640768,1.393871868,0.000263639,-0.000762449,,,9.157057804,0.027424254,-16.08518683,-37.22199675,2.629936142
6.68640768,1.393871868,0.000263639,-0.000762449,,,9.157635103,0.895312448,-11.54051434,-20.41321449,1.428439981
6.689944034,1.180079709,0.000250359,-0.000680415,,,9.166607286,1.560438083,-6.239111399,-7.95717808,0.319449541
6.689944034,1.180079709,0.000250359,-0.000680415,,,9.168650914,1.817057725,-3.8130557,-3.294448946,0.057751471
6.690090052,1.92833937,0.000252804,-0.000908486,,,9.189166911,1.984725156,-2.170626303,-0.274939235,5.21717E-05
6.690090052,1.92833937,0.000252804,-0.000908486,,,9.191208246,1.855880996,-3.423286877,-2.594108168,0.034853871
6.690998782,2,0.000246377,-0.000921604,,,9.193064345,1.686870498,-5.037175892,-5.648724398,0.16451141
6.690998782,2,0.000246377,-0.000921604,,,9.195591002,1.731399069,-4.614779318,-4.841672204,0.121731547
6.693058811,0.966040052,0.000227446,-0.000585719,,,9.200075706,1.928350502,-2.717103941,-1.289270519,0.007854999
6.695617259,2.190996847,0.00026358,-0.000996176,,,9.207248247,0.65359548,-12.99440649,-24.98327226,1.77271621
6.695617259,2.190996847,0.00026358,-0.000996176,,,9.207465155,0.218054224,-15.26260799,-33.40586693,2.365766509
6.695777276,0.751665785,0.000194871,-0.000478231,,,9.207735616,0.814190328,-11.99346377,-21.91090502,1.512653444
6.698099429,0.536956906,0.000152411,-0.000357807,,,9.208113616,0.055184748,-15.93889759,-36.59041305,2.522599109
6.698099429,0.536956906,0.000152411,-0.000357807,,,9.208597254,0.922231938,-11.2696261,-19.85468203,1.330259044
6.7002249,0.322409695,9.97619E-05,-0.000224598,,,9.210652878,1.080505642,-10.13552344,-16.86042804,1.058098637
6.7002249,0.322409695,9.97619E-05,-0.000224598,,,9.229940603,1.503698401,-6.661781785,-8.98491268,0.375045277
6.7021583,0.107469898,3.61488E-05,-7.81E-05,,,9.232407123,1.748847837,-4.418753208,-4.523911329,0.103753168
6.702940909,2.388326164,0.000253409,-0.001042629,,,9.242209434,1.659718137,-5.23928744,-6.137539134,0.184732114
6.703539625,2.59224003,0.000214764,-0.001061691,,,9.243653048,1.817057725,-3.7665142,-3.292857469,0.055179863
6.71741234,2.127331231,0.000259349,-0.00096707,,,9.255123363,1.910799119,-2.870755842,-1.604933501,0.012991977
6.71741234,2.127331231,0.000259349,-0.00096707,,,9.258266195,0.842492385,-11.7247248,-21.32636712,1.413985585
6.73205964,2.521989866,0.000227999,-0.001045486,,,9.258330806,0.896308791,-11.36376311,-20.3053886,1.325686141
6.73205964,2.521989866,0.000227999,-0.001045486,,,9.259389145,0.027760493,-16.00488583,-37.04734804,2.46108606
6.732662135,2.327349096,0.00025671,-0.001019135,,,9.26091965,1.981867082,-2.194909102,-0.326336867,0.000471619
6.732662135,2.327349096,0.00025671,-0.001019135,,,9.270470385,1.748847837,-4.388654785,-4.52265429,0.101345906
6.73356021,2.633219895,0.000199619,-0.001046597,,,9.274829821,0.545532579,-13.51952856,-26.98238381,1.854183132
6.739207421,2.063665616,0.000252483,-0.000935908,,,9.274937658,0.329001023,-14.66412681,-31.1574881,2.141182508
6.739207421,2.063665616,0.000252483,-0.000935908,,,9.275716855,1.817057725,-3.747406169,-3.292135006,0.054519134
6.746289244,2.249398309,0.000259686,-0.000995679,,,9.276701508,0.712532154,-12.52778579,-23.78383571,1.602009698
6.746289244,2.249398309,0.000259686,-0.000995679,,,9.276976848,0.159663303,-15.44780755,-34.44352981,2.322276933
6.750421681,1.714992139,0.000262466,-0.000846027,,,9.277690749,1.022948396,-10.44426476,-17.90021547,1.09957121
6.750421681,1.714992139,0.000262466,-0.000846027,,,9.278492675,1.187523863,-9.210089377,-14.81643243,0.829874858
6.753257177,1.501184402,0.000264406,-0.000785375,,,9.28718717,1.910799119,-2.861386756,-1.604813575,0.013319803
6.755712092,1.85749607,0.00025511,-0.000877449,,,9.288081666,1.3979163,-7.491835493,-10.91488344,0.501639093
6.756092673,1.287376664,0.000256332,-0.000711916,,,9.291742493,1.683895119,-4.969408254,-5.69620806,0.155043774
6.756092673,1.287376664,0.000256332,-0.000711916,,,9.294507121,0.461144061,-13.95769427,-28.58301519,1.947228557
6.756092673,1.287376664,0.000256332,-0.000711916,,,9.294530111,0.414982039,-14.20272332,-29.47225103,2.007933089
6.756092673,1.287376664,0.000256332,-0.000711916,,,9.298982913,1.981867082,-2.19253675,-0.326326921,0.000689383
6.756092673,1.287376664,0.000256332,-0.000711916,,,9.299079775,1.27084449,-8.520165847,-13.25881737,0.686034154
6.756092673,1.287376664,0.000256332,-0.000711916,,,9.299079919,1.728496248,-4.553906971,-4.889103385,0.115691139
6.759207449,1.073337008,0.000238501,-0.000625615,,,9.301124037,1.315697724,-8.154158262,-12.42764069,0.616626513
6.761002502,2,0.000242944,-0.000902689,,,9.302174268,1.560142269,-6.07203111,-7.94204103,0.28417744
6.761002502,2,0.000242944,-0.000902689,,,9.319267558,0.736373297,-12.31317898,-23.29137742,1.520564747
6.761002502,2,0.000242944,-0.000902689,,,9.319585398,1.001111204,-10.53273798,-18.28470045,1.101367144
6.761002502,2,0.000242944,-0.000902689,,,9.320170431,0.136561605,-15.50873481,-34.8345806,2.279740361
6.761002502,2,0.000242944,-0.000902689,,,9.341609498,1.855880996,-3.352481882,-2.592443652,0.034419018
6.761002502,2,0.000242944,-0.000902689,,,9.343900025,1.580508523,-5.844469088,-7.567240138,0.252964599
6.761780866,2.461012798,0.000236613,-0.001027399,,,9.350476957,1.928350502,-2.681318903,-1.28899337,0.009551943
6.762080224,2.562969731,0.000214889,-0.001032955,,,9.355894712,1.817057725,-3.701973259,-3.291029314,0.053813832
6.762322226,0.859297352,0.000211068,-0.000526616,,,9.364120222,0.572749678,-13.23748047,-26.37126992,1.71250233
6.762322226,0.859297352,0.000211068,-0.000526616,,,9.364254475,0.303176184,-14.68870603,-31.54981473,2.051786451
6.764644379,0.644588473,0.000173866,-0.000414567,,,9.365443481,1.161379548,-9.27455832,-15.26589337,0.81694181
6.766966533,0.429879594,0.000126683,-0.000289571,,,9.37641071,1.984725156,-2.160406853,-0.274900927,0.000932371
6.766966533,0.429879594,0.000126683,-0.000289571,,,9.377381407,1.423310074,-7.156389936,-10.42987604,0.435200093
6.766966533,0.429879594,0.000126683,-0.000289571,,,9.379994868,1.799913913,-3.844859105,-3.599495357,0.063488405
6.766966533,0.429879594,0.000126683,-0.000289571,,,9.386722549,0.850387051,-11.46946745,-21.08104028,1.28220655
6.766966533,0.429879594,0.000126683,-0.000289571,,,9.386776977,0.895721022,-11.16323043,-20.2266078,1.212719211
6.766966533,0.429879594,0.000126683,-0.000289571,,,9.390662506,0.02338494,-15.9340829,-36.9462655,2.260760265
6.768084326,2.185732693,0.000258318,-0.000970083,,,9.406686271,0.596590821,-13.03889305,-25.8791835,1.633403745
6.768899933,0.214939797,6.89632E-05,-0.000151384,,,9.406912224,0.765426798,-11.99626861,-22.6728058,1.391681499
6.770833333,0,0,0,,,9.407167525,0.978074228,-10.55943887,-18.66845915,1.07067673
6.789879407,2.122067077,0.000254344,-0.000942419,,,9.40733813,1.139542355,-9.377329041,-15.65589104,0.82551657
6.791502093,2.400035729,0.000243101,-0.001007819,,,9.407448057,0.280074486,-14.75651879,-31.94803656,2.020392934
6.791502093,2.400035729,0.000243101,-0.001007819,,,9.41007269,0.109691411,-15.55196847,-35.24291158,2.172319415
6.792100809,2.603949595,0.000200193,-0.001018172,,,9.410274213,1.679371397,-4.905330875,-5.772222871,0.149286416
6.805129202,2.322084942,0.00025054,-0.000990024,,,9.416455128,1.716942586,-4.566359444,-5.093964027,0.118837477
6.811674488,2.058401462,0.000247722,-0.000912684,,,9.419107164,1.443676329,-6.932719957,-10.05088337,0.397364552
6.811674488,2.058401462,0.000247722,-0.000912684,,,9.42503815,0.466723692,-13.75820284,-28.34365961,1.78399649
6.818756311,2.244134154,0.000253937,-0.000968359,,,9.425065441,0.411924299,-14.05687493,-29.3937597,1.850827697
6.818756311,2.244134154,0.000253937,-0.000968359,,,9.425663031,1.599230106,-5.595305723,-7.221163958,0.221750377
6.820106673,1.608496936,0.000262123,-0.000802937,,,9.426730079,1.266339496,-8.367805815,-13.30313058,0.630914427
6.820620824,2.533699431,0.000214663,-0.00100483,,,9.429075108,1.928350502,-2.662272689,-1.28896808,0.010853623
6.820620824,2.533699431,0.000214663,-0.00100483,,,9.429156843,1.319585213,-7.939306596,-12.32258464,0.55607849
6.821334131,1.78665277,0.000256415,-0.000846315,,,9.454655765,1.775464756,-4.019495146,-4.038674352,0.077761832
6.822942169,1.394689198,0.000259365,-0.000738016,,,9.469033999,1.910799119,-2.80852634,-1.604534506,0.016387082
6.822942169,1.394689198,0.000259365,-0.000738016,,,9.474493798,0.657363896,-12.57947281,-24.6726924,1.481873184
6.825356088,1.180633964,0.000246695,-0.000660286,,,9.475007322,1.085092449,-9.684238405,-16.64279355,0.866580601
6.825356088,1.180633964,0.000246695,-0.000660286,,,9.475568729,0.495025749,-13.53674446,-27.75948002,1.692594833
6.826624542,1.9291567,0.000246284,-0.000873196,,,9.47634097,0.384500044,-14.14439884,-29.87248226,1.822437316
6.826624542,1.9291567,0.000246284,-0.000873196,,,9.476463632,1.240416349,-8.502099808,-13.76838375,0.645600178
6.828173317,2,0.00023947,-0.000884532,,,9.477545193,0.22063821,-14.97962977,-33.02150921,1.988053147
6.828173317,2,0.00023947,-0.000884532,,,9.478079681,1.984725156,-2.1505435,-0.274915316,0.001459045
6.828470864,0.966594307,0.000224341,-0.00056969,,,9.478689902,1.343762195,-7.678603712,-11.86902098,0.506617766
6.831189329,0.75222004,0.000192356,-0.00046618,,,9.483804093,1.493448005,-6.438697724,-9.136619983,0.324666099
6.833511483,0.537511161,0.000150555,-0.000349581,,,9.493134155,1.893655307,-2.95280132,-1.912621521,0.022276752
6.833511483,0.537511161,0.000150555,-0.000349581,,,9.525250771,1.31913369,-7.816489345,-12.31250021,0.523212703
6.835641566,0.322409695,9.85045E-05,-0.000219648,,,9.525451264,1.269033561,-8.212426613,-13.23150632,0.587804046
6.835641566,0.322409695,9.85045E-05,-0.000219648,,,9.526415817,0.468835021,-13.62354743,-28.21924181,1.669597736
6.837574967,0.107469898,3.5707E-05,-7.66E-05,,,9.527160767,0.41310871,-13.93263458,-29.28224747,1.732652191
6.840551392,2.180468539,0.000252861,-0.000944227,,,9.540619756,0.76913129,-11.78233669,-22.521962,1.270573472
6.850342051,2.472722363,0.00022432,-0.000989196,,,9.540875056,0.98177872,-10.33736614,-18.54074473,0.974420214
6.850342051,2.472722363,0.00022432,-0.000989196,,,9.542121375,1.847934262,-3.335559283,-2.734516913,0.041116573
6.850641409,2.574679296,0.000200419,-0.000990365,,,9.543081127,0.600369768,-12.83581023,-25.70730815,1.491618827
6.862346474,2.116802923,0.000249166,-0.000918011,,,9.543732985,1.143321302,-9.15364046,-15.54296472,0.748540276
6.862346474,2.116802923,0.000249166,-0.000918011,,,9.544790964,1.434631038,-6.858725269,-10.20083775,0.378977498
6.86396916,2.394771575,0.000236224,-0.00097712,,,9.546648396,0.109691411,-15.45327804,-35.09282886,1.986513902
6.877596269,2.316820788,0.000244132,-0.000961149,,,9.546768733,0.280074486,-14.61847316,-31.8132895,1.84748688
6.878845302,2.058401462,0.000243655,-0.000893146,,,9.548870542,1.59036303,-5.554134619,-7.375326411,0.217944841
6.88695617,1.71580947,0.000256685,-0.0008151,,,9.551708266,1.981867082,-2.165979427,-0.326286314,0.002287013
6.88695617,1.71580947,0.000256685,-0.0008151,,,9.559677093,0.855178918,-11.18653701,-20.89756125,1.137827254
6.889791666,1.502001732,0.000259411,-0.000758785,,,9.55973152,0.90051289,-10.87798127,-20.04946396,1.075270121
6.889791666,1.502001732,0.000259411,-0.000758785,,,9.567327115,0.02338494,-15.83559544,-36.73973041,2.010151667
6.891223378,2.23887,0.000247977,-0.000941283,,,9.569646677,1.66790158,-4.876216572,-5.974722424,0.151316762
6.891223378,2.23887,0.000247977,-0.000941283,,,9.575827592,1.705472768,-4.549914217,-5.297408119,0.123305258
6.891646297,1.288542189,0.000252031,-0.000689893,,,9.577863275,1.76659768,-4.022907854,-4.197002138,0.083585861
6.891646297,1.288542189,0.000252031,-0.000689893,,,9.580317799,1.961515493,-2.33720097,-0.692483362,0.006123745
6.892246581,1.8583134,0.000248631,-0.000843608,,,9.584013001,1.413884429,-6.983630875,-10.57482664,0.394355665
6.892246581,1.8583134,0.000248631,-0.000843608,,,9.584999284,1.167427927,-8.916655369,-15.08843597,0.697722919
6.893795356,1.9291567,0.000242848,-0.000855758,,,9.585913799,0.578307171,-12.9150131,-26.09844355,1.478625517
6.894619503,1.073891263,0.000234745,-0.000607558,,,9.589578415,0.304173911,-14.45278149,-31.31567969,1.774928834
6.894619503,1.073891263,0.000234745,-0.000607558,,,9.618817955,1.884610017,-2.988041657,-2.075233134,0.028473986
6.895344131,2,0.000235828,-0.000866382,,,9.623226485,1.979648411,-2.173593226,-0.366237797,0.003114852
6.895344131,2,0.000235828,-0.000866382,,,9.628616957,0.744944112,-11.82260799,-22.93369914,1.232703377
6.897734279,0.859851607,0.000207909,-0.000512602,,,9.628934797,1.009682019,-10.01883885,-17.99348321,0.884952611
6.897734279,0.859851607,0.000207909,-0.000512602,,,9.628956289,1.559993415,-5.736123867,-7.921492021,0.239085821
6.900056433,0.645142728,0.000171381,-0.000404461,,,9.636155716,0.136561605,-15.26460999,-34.49219507,1.855531774
6.900056433,0.645142728,0.000171381,-0.000404461,,,9.648153058,1.322521849,-7.640735158,-12.23405728,0.483959951
6.902488517,0.430191332,0.000124911,-0.000283044,,,9.64832195,1.280318402,-7.970755516,-13.00519977,0.533390941
6.902488517,0.430191332,0.000124911,-0.000283044,,,9.654963459,1.899884861,-2.845017402,-1.800554296,0.024074216
6.9043166,0.214939797,6.79806E-05,-0.00014816,,,9.656817276,0.467751329,-13.48308746,-28.15135418,1.5378875
6.9043166,0.214939797,6.79806E-05,-0.00014816,,,9.657444808,0.420808488,-13.75005343,-29.04252967,1.586657048
6.90625,0,0,0,,,9.665051132,1.779398805,-3.863829936,-3.966425987,0.077531235
6.909182008,2.545408996,0.000200307,-0.00096318,,,9.667782358,1.396132176,-7.034625284,-10.89086759,0.397323441
6.909182008,2.545408996,0.000200307,-0.00096318,,,9.668178326,1.539246806,-5.872136518,-8.295314338,0.254645518
6.909182008,2.545408996,0.000200307,-0.00096318,,,9.668574578,1.198169057,-8.577659061,-14.50767623,0.626138287
6.909182008,2.545408996,0.000200307,-0.00096318,,,9.670201096,1.033788644,-9.792096594,-17.5362679,0.832054048
6.913018459,2.175204385,0.000247217,-0.000918622,,,9.671449629,0.722881514,-11.9109501,-23.3291822,1.227562396
6.913018459,2.175204385,0.000247217,-0.000918622,,,9.675408416,0.553875177,-12.95615755,-26.50998996,1.425307852
6.922809117,2.467458209,0.000216664,-0.000956876,,,9.678351973,0.333681046,-14.21237637,-30.6872598,1.649879425
6.922809117,2.467458209,0.000216664,-0.000956876,,,9.678965398,0.16066103,-15.11664803,-33.99436889,1.788152586
6.929517288,2.116802923,0.000244459,-0.000897079,,,9.687905271,1.655383827,-4.892417697,-6.198411611,0.157623986
6.936436226,2.389507421,0.000229082,-0.000946659,,,9.688190854,0.85440385,-11.02224828,-20.86279769,1.050912363
6.936436226,2.389507421,0.000229082,-0.000946659,,,9.688255466,0.908220257,-10.65448411,-19.86065638,0.982677614
6.946016117,2.058401462,0.000239404,-0.000873622,,,9.695242697,1.699984957,-4.514515974,-5.395076882,0.126143744
6.950063336,2.311556634,0.000237491,-0.000932523,,,9.698536163,0.027760493,-15.75397299,-36.53037604,1.839021665
6.950063336,2.311556634,0.000237491,-0.000932523,,,9.701196637,1.794673649,-3.715818773,-3.691785529,0.07016543
6.956641162,1.609314266,0.000256384,-0.000774197,,,9.704213944,1.982856188,-2.131467129,-0.308537951,0.003125769
6.956641162,1.609314266,0.000256384,-0.000774197,,,9.71166859,1.91958376,-2.660511339,-1.446460727,0.019095374
6.95786862,1.7874701,0.000249941,-0.000813944,,,9.732848807,1.493047202,-6.189565642,-9.129165018,0.290987218
6.95786862,1.7874701,0.000249941,-0.000813944,,,9.734442312,1.094855329,-9.268032624,-16.39623803,0.726729729
6.958495793,1.395854723,0.000254362,-0.00071388,,,9.73446614,1.630755323,-5.062139567,-6.641783181,0.174890918
6.959417395,1.8583134,0.000245213,-0.000826899,,,9.737243098,0.936837469,-10.39473406,-19.31571863,0.918815428
6.960909712,1.181799488,0.000242315,-0.000640398,,,9.738151383,1.718117875,-4.335325345,-5.068482961,0.114538607
6.96096617,1.9291567,0.000239247,-0.000838341,,,9.739037943,0.828213122,-11.1356029,-21.33479785,1.050805459
6.962514945,2,0.000232021,-0.000848253,,,9.741534373,0.665642571,-12.19189371,-24.37464263,1.242223894
6.962514945,2,0.000232021,-0.000848253,,,9.74741049,1.838247178,-3.3284173,-2.908516774,0.050522284
6.963690445,2.233605846,0.000241815,-0.000914467,,,9.747455176,0.222734247,-14.74910265,-32.7569958,1.667243175
6.963690445,2.233605846,0.000241815,-0.000914467,,,9.749355961,0.056369159,-15.59307883,-35.93865873,1.764871865
6.963690445,2.233605846,0.000241815,-0.000914467,,,9.775332459,1.701503171,-4.449444617,-5.36737676,0.125271153
6.963690445,2.233605846,0.000241815,-0.000914467,,,9.778984641,1.658741748,-4.799363843,-6.137285314,0.15383347
6.963690445,2.233605846,0.000241815,-0.000914467,,,9.786907382,1.794673649,-3.672096928,-3.691716695,0.072128392
6.963690445,2.233605846,0.000241815,-0.000914467,,,9.787281721,0.913456632,-10.49665619,-19.73743573,0.919882292
6.963882918,0.967148562,0.000220518,-0.000553701,,,9.789141177,0.858648691,-10.87014864,-20.75441566,0.983725916
6.963882918,0.967148562,0.000220518,-0.000553701,,,9.795690616,1.91958376,-2.634232792,-1.446547834,0.020888224
6.966347029,2.516826485,0.000199881,-0.000937243,,,9.795725142,1.403484695,-6.845208384,-10.75011149,0.36843168
6.966601383,0.752774295,0.000189204,-0.000454168,,,9.796517362,1.205521576,-8.372723313,-14.35684997,0.576134507
6.966601383,0.752774295,0.000189204,-0.000454168,,,9.798692571,1.5467471,-5.697733898,-8.156725933,0.238710585
6.969033467,0.537822899,0.00014813,-0.000341243,,,9.800715341,1.041288937,-9.578465155,-17.37193131,0.762582296
6.97116355,0.322721434,9.69829E-05,-0.000214921,,,9.800819797,0.028608666,-15.7077945,-36.43103459,1.71658462
6.972991633,0.107469898,3.51363E-05,-7.50E-05,,,9.809808097,0.726339426,-11.72515182,-23.2139986,1.123503163
6.972991633,0.107469898,3.51363E-05,-7.50E-05,,,9.811040872,0.557264959,-12.78885495,-26.3833323,1.305791411
6.979974138,2.438875698,0.000215394,-0.000931074,,,9.812898855,1.982856188,-2.108195762,-0.308542669,0.003786962
6.980189273,2.175204385,0.000241819,-0.000896281,,,9.813650734,1.332032544,-7.386419981,-12.04753656,0.436680519
6.980189273,2.175204385,0.000241819,-0.000896281,,,9.813819626,1.289829097,-7.712212328,-12.81608118,0.480383169
6.993601248,2.360924911,0.000226941,-0.000920974,,,9.813984429,0.337070829,-14.0752942,-30.54167714,1.509708861
6.996688102,2.116802923,0.00023955,-0.000876167,,,9.817323866,0.164118942,-15.0104912,-33.82932884,1.630811675
6.996688102,2.116802923,0.00023955,-0.000876167,,,9.81822805,1.780677721,-3.771651501,-3.943429279,0.0800268
7.007228357,2.282974123,0.000234443,-0.000906934,,,9.832261765,0.47213611,-13.27994512,-27.97805386,1.372470764
7.007228357,2.282974123,0.000234443,-0.000906934,,,9.832889297,0.425193269,-13.5551784,-28.86399712,1.415545737
7.013186931,2.058401462,0.000234974,-0.000854126,,,9.836194155,1.570322361,-5.477106293,-7.73078375,0.217853203
7.013186931,2.058401462,0.000234974,-0.000854126,,,9.842866976,1.021593341,-9.671108808,-17.72819513,0.76723792
7.023490659,1.7166268,0.000250176,-0.000784225,,,9.849359115,1.899884861,-2.778268074,-1.80076313,0.028753927
7.023490659,1.7166268,0.000250176,-0.000784225,,,9.852014159,0.751977802,-11.51064297,-22.72332309,1.067072677
7.023490659,1.7166268,0.000250176,-0.000784225,,,9.860676075,0.140734003,-15.10837301,-34.24783458,1.598064416
7.023490659,1.7166268,0.000250176,-0.000784225,,,9.880024922,1.430895418,-6.550654687,-10.25062771,0.331882369
7.023490659,1.7166268,0.000250176,-0.000784225,,,9.880679784,1.885888933,-2.881192854,-2.052361637,0.03461277
7.023490659,1.7166268,0.000250176,-0.000784225,,,9.881011205,1.184438916,-8.439026076,-14.73499737,0.5745369
7.023490659,1.7166268,0.000250176,-0.000784225,,,9.884100714,1.712941287,-4.288764845,-5.1616986,0.119038727
7.02351205,2.488243975,0.000199153,-0.000911914,,,9.887177247,1.676919835,-4.578972608,-5.809852545,0.141224537
7.025039434,1.7874701,0.000246521,-0.000797977,,,9.893391828,1.979648411,-2.114549164,-0.366267637,0.005015446
7.025039434,1.7874701,0.000246521,-0.000797977,,,9.894325915,1.772596675,-3.798161929,-4.088888232,0.085861316
7.025345289,1.503167257,0.000253695,-0.000732544,,,9.899716756,0.586149864,-12.52122869,-25.80888374,1.207779719
7.026588209,1.8583134,0.000241632,-0.000810226,,,9.903381372,0.312016604,-14.14621504,-30.97153061,1.444695379
7.026588209,1.8583134,0.000241632,-0.000810226,,,9.908756965,1.603631349,-5.155021062,-7.129865497,0.19059472
7.02719992,1.289707714,0.000246957,-0.000667929,,,9.916355033,0.918771785,-10.31345324,-19.61425727,0.848174896
7.02719992,1.289707714,0.000246957,-0.000667929,,,9.917526506,1.454470679,-6.332737166,-9.823222365,0.307343454
7.028136984,1.9291567,0.000235485,-0.00082096,,,9.917921405,0.872602563,-10.62968626,-20.46793931,0.897271367
7.028136984,1.9291567,0.000235485,-0.00082096,,,9.92316284,1.164743319,-8.541430431,-15.09207754,0.583104727
7.029685759,2,0.000228056,-0.000830161,,,9.930572904,1.963033707,-2.238691448,-0.665189332,0.009901322
7.029685759,2,0.000228056,-0.000830161,,,9.932130358,0.024099425,-15.68423615,-36.42596277,1.572925657
7.029685759,2,0.000228056,-0.000830161,,,9.932162399,1.002469468,-9.709043664,-18.06837395,0.751099776
7.029685759,2,0.000228056,-0.000830161,,,9.936639397,1.34277506,-7.183756483,-11.84752658,0.404686548
7.029685759,2,0.000228056,-0.000830161,,,9.93683989,1.292674931,-7.566815687,-12.7580533,0.452001351
7.030173127,1.075056788,0.000230298,-0.000589808,,,9.939509761,0.78590414,-11.19218672,-22.07158817,0.977637764
7.033146333,0.860405861,0.000204066,-0.000498669,,,9.941922818,0.611788239,-12.3193161,-25.31617423,1.152209073
7.033146333,0.860405861,0.000204066,-0.000498669,,,9.94260604,1.853933257,-3.115887474,-2.626916782,0.048877993
7.033146333,0.860405861,0.000204066,-0.000498669,,,9.946733581,0.288631664,-14.24750153,-31.39397419,1.421471526
7.033146333,0.860405861,0.000204066,-0.000498669,,,9.95080678,0.113042837,-15.21014641,-34.72181769,1.518884972
7.033146333,0.860405861,0.000204066,-0.000498669,,,9.9625299,0.479734564,-13.11625036,-27.78511902,1.25835439
7.033146333,0.860405861,0.000204066,-0.000498669,,,9.96327485,0.424008253,-13.4497635,-28.83272608,1.304653864
7.035578417,0.645454466,0.000168263,-0.000394287,,,9.965127599,1.983385296,-2.065256899,-0.299039189,0.004422854
7.037139159,2.410293187,0.000213831,-0.00090588,,,9.9716333,1.514068842,-5.819888801,-8.745648092,0.254777374
7.038010501,0.430503071,0.000122699,-0.000276568,,,9.981157898,1.370761485,-6.928139509,-11.33864116,0.372824871
7.038010501,0.430503071,0.000122699,-0.000276568,,,9.986878513,1.269294093,-7.696413353,-13.1817328,0.464453243
7.039838584,0.215251535,6.68406E-05,-0.000145165,,,9.994237449,1.113135715,-8.848225344,-16.03145983,0.614529919
7.040404886,2.217869841,0.000235571,-0.000884606,,,9.995802932,1.901123826,-2.715098345,-1.778640916,0.031448413
7.040404886,2.217869841,0.000235571,-0.000884606,,,10.00718085,1.787531402,-3.620603761,-3.82080728,0.080723443
7.041666667,0,0,0,,,10.00901626,0.677526529,-11.83447589,-24.07277635,1.044479316
7.041666667,0,0,0,,,10.01263313,0.510170133,-12.88739596,-27.19834367,1.193986791
7.041666667,0,0,0,,,10.01473869,0.39624776,-13.57398115,-29.33671747,1.284485698
7.050766269,2.3323424,0.000224511,-0.000895892,,,10.01733603,0.227379418,-14.54834268,-32.52103493,1.395781141
7.050766269,2.3323424,0.000224511,-0.000895892,,,10.0216119,1.618566076,-4.958778199,-6.861171288,0.178248527
7.056903715,2.159468379,0.000235527,-0.000867461,,,10.02491119,1.918267638,-2.567329052,-1.470394342,0.025763621
7.073402543,2.101066917,0.000233191,-0.000848374,,,10.02963833,1.354541615,-7.010237403,-11.6322334,0.380402932
7.080677071,2.459661464,0.000198136,-0.000887203,,,10.03008182,1.732259787,-4.050240164,-4.81485061,0.109799335
7.083942798,2.267238118,0.000228106,-0.000876537,,,10.03264965,1.469705572,-6.119653781,-9.547131523,0.2852054
7.089491984,1.7874701,0.000243087,-0.000782706,,,10.03315835,1.696238335,-4.33528214,-5.462926078,0.130156045
7.089491984,1.7874701,0.000243087,-0.000782706,,,10.03515845,1.303174352,-7.396165897,-12.56466206,0.424647041
7.089901372,2.042665456,0.000228525,-0.000827345,,,10.05066397,1.986004072,-2.019971443,-0.251895112,0.00403361
7.089901372,2.042665456,0.000228525,-0.000827345,,,10.05997356,1.174812239,-8.332587615,-14.90100741,0.536856816
7.091040759,1.8583134,0.000238048,-0.000794279,,,10.06430882,0.484416539,-13.00292821,-27.66637743,1.177315155
7.092194786,1.610479791,0.000249946,-0.000745865,,,10.06566942,0.426220477,-13.35610744,-28.7571626,1.221564592
7.092194786,1.610479791,0.000249946,-0.000745865,,,10.0662776,1.012340004,-9.502613708,-17.87424025,0.689843394
7.092589534,1.9291567,0.000231731,-0.000804333,,,10.0734887,1.456042245,-6.193826419,-9.794205039,0.292673112
7.094049417,1.397020248,0.000248592,-0.00068986,,,10.07362497,0.795774677,-10.99267333,-21.86586554,0.895196281
7.094138309,2,0.000224109,-0.000812852,,,10.07873354,0.621857159,-12.1289804,-25.09519435,1.051704235
7.094138309,2,0.000224109,-0.000812852,,,10.07914372,1.934349497,-2.420343667,-1.181216953,0.020921841
7.09430418,2.381710677,0.000211988,-0.000881302,,,10.0793323,1.815231115,-3.365492741,-3.323120803,0.069065437
7.09430418,2.381710677,0.000211988,-0.000881302,,,10.08605426,0.288631664,-14.15707408,-31.33759077,1.299345568
7.096463335,1.182965013,0.000237166,-0.000620629,,,10.08738249,0.113042837,-15.15221802,-34.65243444,1.38718423
7.099436542,0.968314087,0.00021604,-0.000538082,,,10.08983691,0.931539608,-10.04827255,-19.35773122,0.758394023
7.099436542,0.968314087,0.00021604,-0.000538082,,,10.09140329,0.885370386,-10.3664479,-20.20830882,0.801676591
7.102123367,0.753086033,0.000185368,-0.000442143,,,10.09729841,1.604875754,-5.017302615,-7.108428259,0.185941955
7.102123367,0.753086033,0.000185368,-0.000442143,,,10.10064371,1.203352358,-8.08459786,-14.37948712,0.501296165
7.104555451,0.538134638,0.000145188,-0.000332995,,,10.10844056,1.832374927,-3.216514976,-3.015001308,0.06189197
7.106685534,0.323033172,9.51103E-05,-0.000210244,,,10.10879497,0.024099425,-15.63327642,-36.3260944,1.396299743
7.108513617,0.107781637,3.45301E-05,-7.36E-05,,,10.1222642,0.600162794,-12.23026155,-25.49067259,1.042820521
7.108513617,0.107781637,3.45301E-05,-7.36E-05,,,10.12895739,0.313880141,-13.98285733,-30.84775603,1.24875238
7.117119327,2.202133835,0.0002292,-0.00085549,,,10.13813745,1.591212427,-5.097876608,-7.355060073,0.193896202
7.117119327,2.202133835,0.0002292,-0.00085549,,,10.13820744,1.749524457,-3.856307735,-4.505067944,0.102114804
7.12748071,2.316606394,0.000218036,-0.000864944,,,10.14185962,1.706763034,-4.19069197,-5.274353982,0.124896154
7.133618156,2.143732373,0.000229132,-0.000839392,,,10.14371853,1.867947643,-2.92048928,-2.375485225,0.047343195
7.137842092,2.431078954,0.000196843,-0.000863119,,,10.15315958,1.044430083,-9.192848188,-17.28085664,0.630692928
7.137842092,2.431078954,0.000196843,-0.000863119,,,10.15601527,1.374680614,-6.753005547,-11.26693927,0.348033494
7.137842092,2.431078954,0.000196843,-0.000863119,,,10.16066532,1.331409757,-7.076639979,-12.05121725,0.3817175
7.150116985,2.085330912,0.000226749,-0.000821337,,,10.16230676,0.774814544,-11.05231794,-22.24250313,0.869622949
7.150116985,2.085330912,0.000226749,-0.000821337,,,10.16319643,1.449978466,-6.173042403,-9.904409259,0.290210488
7.154353922,2.042665456,0.000224071,-0.000809115,,,10.16684897,1.986004072,-1.984140964,-0.251908945,0.004431354
7.155493309,1.8583134,0.000234323,-0.000778397,,,10.16896391,1.934349497,-2.388451521,-1.181293507,0.022051396
7.155493309,1.8583134,0.000234323,-0.000778397,,,10.17276213,1.769876046,-3.678881314,-4.139196634,0.092340031
7.156246912,1.718370845,0.000243132,-0.000754565,,,10.17666136,0.140734003,-14.96144449,-34.09156433,1.296809509
7.156246912,1.718370845,0.000243132,-0.000754565,,,10.18500836,1.247008458,-7.688302412,-13.58385482,0.446778218
7.157042084,1.9291567,0.000227841,-0.000787772,,,10.19034005,1.690543164,-4.291035188,-5.566656704,0.134007969
7.158590859,2,0.000220028,-0.000795608,,,10.19382973,1.072970203,-8.952379859,-16.757079,0.593120321
7.158590859,2,0.000220028,-0.000795608,,,10.1961299,0.485099129,-12.898593,-27.62187493,1.084398728
7.160657239,2.251502112,0.000221634,-0.000846898,,,10.19727605,0.436075814,-13.20155588,-28.53766452,1.117950471
7.160898913,1.504332782,0.000247232,-0.000706484,,,10.200066,1.832374927,-3.175914851,-3.015345012,0.063542051
7.160898913,1.504332782,0.000247232,-0.000706484,,,10.20583743,0.75312018,-11.16005541,-22.63899564,0.866711054
7.162753544,1.290873239,0.00024111,-0.000646149,,,10.21317502,1.5544757,-5.334435033,-8.018285621,0.215390584
7.162753544,1.290873239,0.00024111,-0.000646149,,,10.21320494,0.575765077,-12.31332223,-25.92856368,1.00605236
7.16572675,1.076222312,0.000225097,-0.000572232,,,10.21851722,0.945194462,-9.836155271,-19.09786832,0.696240975
7.16572675,1.076222312,0.000225097,-0.000572232,,,10.21858116,0.345812097,-13.73810251,-30.22222961,1.16037287
7.169100296,0.861245341,0.000199555,-0.000484974,,,10.21926166,1.769876046,-3.656042892,-4.139512477,0.092947818
7.169100296,0.861245341,0.000199555,-0.000484974,,,10.21956449,0.16598248,-14.79949176,-33.59997877,1.25055134
7.171018622,2.365974671,0.000205324,-0.000849782,,,10.22037668,0.890386522,-10.2151997,-20.10530853,0.742831901
7.171018622,2.365974671,0.000205324,-0.000849782,,,10.23272163,1.918267638,-2.490680283,-1.470624497,0.02877885
7.171100401,0.645766205,0.000164563,-0.000384253,,,10.23318739,1.733304586,-3.934505138,-4.797582076,0.111446393
7.171100401,0.645766205,0.000164563,-0.000384253,,,10.23923636,1.832374927,-3.158570815,-3.015487526,0.064159426
7.173532485,0.430814809,0.000120048,-0.000270183,,,10.23996682,0.028608666,-15.57659313,-36.1809417,1.277102469
7.173532485,0.430814809,0.000120048,-0.000270183,,,10.25393642,1.983385296,-1.975764014,-0.299039212,0.005554575
7.175360568,0.215563274,6.54508E-05,-0.000142211,,,10.25704851,1.146212747,-8.369528519,-15.41863751,0.514889756
7.175360568,0.215563274,6.54508E-05,-0.000142211,,,10.26679716,0.979074721,-9.55749001,-18.4740205,0.650572855
7.177083333,0,0,0,,,10.27164711,1.61644827,-4.820059416,-6.901865947,0.175675495
7.193663858,2.403168071,0.000195329,-0.000840216,,,10.27189199,1.918267638,-2.475729276,-1.470673055,0.02923536
7.193833769,2.186397829,0.000222725,-0.000827145,,,10.27205236,0.864632927,-10.34893381,-20.57600863,0.743669113
7.193833769,2.186397829,0.000222725,-0.000827145,,,10.27781365,0.694013225,-11.49426804,-23.72513683,0.878332948
7.204195151,2.300870389,0.00021141,-0.000834763,,,10.28862761,0.231475516,-14.38578655,-32.34723463,1.167547016
7.204195151,2.300870389,0.00021141,-0.000834763,,,10.29089755,0.058581383,-15.39393944,-35.59601049,1.227046632
7.210332597,2.127996368,0.000222657,-0.000812103,,,10.29407561,1.474717098,-5.892668975,-9.459058804,0.263699251
7.210332597,2.127996368,0.000222657,-0.000812103,,,10.30043595,1.983385296,-1.95979794,-0.299043966,0.005687205
7.214569534,2.085330912,0.000221747,-0.000802183,,,10.30774094,1.652469723,-4.521490554,-6.253436315,0.154630604
7.218806472,2.042665456,0.000219473,-0.000790963,,,10.31588754,1.27174709,-7.401982549,-13.13484927,0.405265691
7.221494634,1.9291567,0.000223819,-0.000771295,,,10.31972937,0.957502397,-9.665770673,-18.86792909,0.650482432
7.221494634,1.9291567,0.000223819,-0.000771295,,,10.32312511,0.897868545,-10.0784227,-19.96239692,0.69689161
7.222248237,1.789214145,0.000235444,-0.000751757,,,10.32531126,1.406680748,-6.386822085,-10.68953123,0.307220014
7.223043409,2,0.00021582,-0.000778448,,,10.32733939,1.098206046,-8.660485838,-16.29386686,0.536395135
7.223043409,2,0.00021582,-0.000778448,,,10.32745438,1.867947643,-2.84413812,-2.37595653,0.050050616
7.224951039,1.612223836,0.000242938,-0.000718492,,,10.32996131,1.363409891,-6.708851948,-11.47292243,0.33687028
7.226840388,2.338063788,0.000203178,-0.000827232,,,10.33718466,1.832374927,-3.115478199,-3.015909963,0.065393895
7.22960304,1.398185773,0.000242059,-0.0006661,,,10.3425974,0.029972717,-15.54697902,-36.11536678,1.19141393
7.22960304,1.398185773,0.000242059,-0.0006661,,,10.34561037,0.758681276,-11.01092885,-22.52399121,0.795939686
7.232016959,1.184130538,0.000231249,-0.000601108,,,10.34891545,1.801567788,-3.348519837,-3.570177592,0.07930356
7.232016959,1.184130538,0.000231249,-0.000601108,,,10.350224,0.581216605,-12.17889801,-25.80767033,0.922265993
7.235390504,0.969153566,0.000210779,-0.000522508,,,10.35269977,1.934349497,-2.3201844,-1.18143436,0.023837516
7.23737168,2.235766106,0.000215046,-0.000818043,,,10.35560022,0.351263625,-13.62777491,-30.08837192,1.060202764
7.23737168,2.235766106,0.000215046,-0.000818043,,,10.35933744,0.171543575,-14.71326754,-33.45130354,1.138272118
7.23807733,0.753925512,0.000180963,-0.000430526,,,10.37192853,1.080033909,-8.756366439,-16.62533734,0.539163196
7.240077435,0.538446376,0.000141731,-0.000324891,,,10.37336801,0.492150837,-12.73536519,-27.45929034,0.967207255
7.240077435,0.538446376,0.000141731,-0.000324891,,,10.37451416,0.443127522,-13.04499602,-28.37154006,0.996294249
7.242207518,0.323344911,9.28877E-05,-0.000205651,,,10.37629435,1.513278222,-5.546966791,-8.764085302,0.234277245
7.242207518,0.323344911,9.28877E-05,-0.000205651,,,10.38247983,1.723441026,-3.935214628,-4.9763722,0.116899308
7.243930284,0.107781637,3.36961E-05,-7.21E-05,,,10.38863314,0.786678361,-10.7896456,-22.00509531,0.756130943
7.249485624,2.375257188,0.000193582,-0.000817933,,,10.39559308,1.986004072,-1.905969933,-0.251912692,0.004979515
7.260016917,2.272959506,0.000208621,-0.000812555,,,10.40288846,0.14744415,-14.84179033,-33.89084435,1.113954729
7.27054821,2.170661823,0.00021617,-0.000799605,,,10.40344936,1.260588335,-7.420718097,-13.33857876,0.399664217
7.27054821,2.170661823,0.00021617,-0.000799605,,,10.41238817,1.549299675,-5.251657781,-8.114608272,0.210953584
7.27054821,2.170661823,0.00021617,-0.000799605,,,10.43927526,0.612775598,-11.91370794,-25.2134072,0.853605774
7.27054821,2.170661823,0.00021617,-0.000799605,,,10.44596844,0.326492945,-13.73570114,-30.5331074,1.0124646
7.27054821,2.170661823,0.00021617,-0.000799605,,,10.4480385,1.242416198,-7.523222819,-13.66932639,0.405197662
7.27054821,2.170661823,0.00021617,-0.000799605,,,10.44871824,1.934349497,-2.283281508,-1.181505128,0.024490605
7.27054821,2.170661823,0.00021617,-0.000799605,,,10.45046868,1.434086485,-6.098830936,-10.19621755,0.278504644
7.274785147,2.127996368,0.000217061,-0.000792019,,,10.45421802,0.966849931,-9.497970304,-18.69412063,0.600086364
7.274785147,2.127996368,0.000217061,-0.000792019,,,10.4559888,1.382719222,-6.479684644,-11.12557469,0.310537742
7.279022084,2.085330912,0.000216588,-0.000783119,,,10.45707853,0.916615447,-9.847001807,-19.61446568,0.635292317
7.279022084,2.085330912,0.000216588,-0.000783119,,,10.46338042,1.643682425,-4.504640224,-6.413764214,0.157051758
7.282662153,2.310152905,0.000200813,-0.000805307,,,10.46620217,1.060972958,-8.823166777,-16.97333616,0.529130885
7.283259021,2.042665456,0.000214736,-0.000772908,,,10.47389047,0.025248477,-15.55066359,-36.16021575,1.091045476
7.283259021,2.042665456,0.000214736,-0.000772908,,,10.47961994,0.825338764,-10.46111165,-21.28977488,0.691690091
7.287495959,2,0.000211491,-0.000761393,,,10.48229802,0.640772684,-11.7016146,-24.69202424,0.814098146
7.287495959,2,0.000211491,-0.000761393,,,10.48951946,0.30239352,-13.86575765,-30.97459938,0.9950454
7.287495959,2,0.000211491,-0.000761393,,,10.49291179,0.118432679,-14.98958654,-34.41002734,1.057196597
7.287495959,2,0.000211491,-0.000761393,,,10.49331602,1.476847908,-5.751497446,-9.424108163,0.249297846
7.287495959,2,0.000211491,-0.000761393,,,10.49404296,1.918267638,-2.388902496,-1.470923077,0.031036475
7.288249562,1.860057445,0.000226078,-0.000746195,,,10.50374369,1.789842881,-3.368322431,-3.782026317,0.085402264
7.289003165,1.72011489,0.000235446,-0.000725199,,,10.50488142,0.501945441,-12.59480865,-27.26085943,0.885935905
7.289003165,1.72011489,0.000235446,-0.000725199,,,10.50577375,1.8874605,-2.620211231,-2.025345332,0.04346136
7.293193446,2.207855223,0.000211596,-0.000796164,,,10.50624202,0.443749379,-12.96757862,-28.34105148,0.91681418
7.293193446,2.207855223,0.000211596,-0.000796164,,,10.50892101,1.361146899,-6.606564841,-11.51717952,0.318641631
7.293655166,1.506076827,0.000240187,-0.000681433,,,10.51979574,1.986004072,-1.860587404,-0.25191702,0.005157257
7.298307167,1.292038763,0.000234494,-0.000624704,,,10.52504119,1.186507302,-7.878856288,-14.68681289,0.429621724
7.298307167,1.292038763,0.000234494,-0.000624704,,,10.53608926,1.617036109,-4.66920571,-6.895042226,0.16926289
7.298307167,1.292038763,0.000234494,-0.000624704,,,10.55098748,1.465728367,-5.801265596,-9.626238484,0.251840757
7.298307167,1.292038763,0.000234494,-0.000624704,,,10.55203029,0.712542144,-11.17858973,-23.36337228,0.736775599
7.298307167,1.292038763,0.000234494,-0.000624704,,,10.55595417,0.535181058,-12.35072348,-26.63976136,0.840111089
7.298307167,1.292038763,0.000234494,-0.000624704,,,10.55794187,0.415140713,-13.12405893,-28.86591021,0.901475031
7.301680713,1.077061791,0.000219095,-0.000554794,,,10.5598844,0.238220788,-14.23627471,-32.15815165,0.974819139
7.305054259,0.86208482,0.000194355,-0.000471546,,,10.56107235,1.401394621,-6.275591326,-10.78985458,0.288711557
7.305054259,0.86208482,0.000194355,-0.000471546,,,10.58467066,1.607669208,-4.71479244,-7.064606086,0.172629058
7.30530739,2.347346305,0.000191617,-0.000796283,,,10.58830032,1.806098869,-3.206590049,-3.489887914,0.078157823
7.307054364,0.646605684,0.000160364,-0.000374654,,,10.59034959,1.257289619,-7.321036603,-13.40203094,0.373022718
7.309054469,0.431126548,0.000116962,-0.000263937,,,10.60570937,1.075553335,-8.624869801,-16.70860589,0.485165613
7.309054469,0.431126548,0.000116962,-0.000263937,,,10.60902944,0.508174205,-12.49842926,-27.13531564,0.827069078
7.309054469,0.431126548,0.000116962,-0.000263937,,,10.6091748,1.983385296,-1.847128364,-0.299070757,0.006205784
7.309054469,0.431126548,0.000116962,-0.000263937,,,10.60965654,0.446329922,-12.89900676,-28.28127003,0.857531772
7.309054469,0.431126548,0.000116962,-0.000263937,,,10.61912714,0.83991914,-10.26934455,-21.01902239,0.630919024
7.309054469,0.431126548,0.000116962,-0.000263937,,,10.62310053,1.946813837,-2.120357686,-0.957349239,0.020246773
7.310777234,0.215563274,6.373E-05,-0.000139133,,,10.62460911,0.655646104,-11.51666627,-24.40901365,0.739200417
7.3125,0,0,0,,,10.62884014,0.30239352,-13.8093582,-30.95183686,0.908635798
7.315838683,2.245048623,0.000205623,-0.000790975,,,10.62948749,0.118432679,-14.95619895,-34.37801445,0.964475365
7.315838683,2.245048623,0.000205623,-0.000790975,,,10.63428094,1.291193575,-7.04588299,-12.78785525,0.346035704
7.336629435,2.127996368,0.000211525,-0.000772843,,,10.6346746,0.985710068,-9.243727838,-18.34905602,0.534732363
7.336629435,2.127996368,0.000211525,-0.000772843,,,10.63688171,1.796731968,-3.256780879,-3.658841929,0.082057519
7.338483919,2.282242023,0.000198244,-0.00078402,,,10.63753511,0.935475584,-9.594614596,-19.26780975,0.565375647
7.338483919,2.282242023,0.000198244,-0.00078402,,,10.65055508,0.025248477,-15.52419957,-36.11169514,0.967486741
7.340866372,2.085330912,0.000211493,-0.000764931,,,10.66931877,0.632896017,-11.64368143,-24.8264894,0.732046076
7.345103309,2.042665456,0.000210066,-0.000755697,,,10.67240364,0.328666747,-13.62604993,-30.45764252,0.87324252
7.34770352,2.180600186,0.000208034,-0.000775408,,,10.68077199,1.935694296,-2.182300902,-1.157409768,0.024681261
7.34770352,2.180600186,0.000208034,-0.000775408,,,10.69126051,1.599745233,-4.720830052,-7.209117794,0.172671095
7.349340246,2,0.00020723,-0.000745146,,,10.6946962,1.113767466,-8.296491684,-16.01372385,0.441721712
7.349340246,2,0.00020723,-0.000745146,,,10.69609016,1.494599554,-5.505879847,-9.107491439,0.225894024
7.354250887,1.930900745,0.000214961,-0.00073788,,,10.70458547,1.440405965,-5.904652654,-10.08724934,0.253859283
7.354250887,1.930900745,0.000214961,-0.00073788,,,10.71140081,0.820411918,-10.34853577,-21.37600735,0.610358582
7.35500449,1.79095819,0.000227201,-0.000721191,,,10.7165546,1.972265755,-1.890850315,-0.499242438,0.010557476
7.357707292,1.613967881,0.000235256,-0.000691511,,,10.71887375,0.14744415,-14.75557083,-33.81998541,0.901460115
7.361129156,2.319435422,0.000189452,-0.000775282,,,10.73110935,1.345540119,-6.591346634,-11.80497846,0.302654624
7.361129156,2.319435422,0.000189452,-0.000775282,,,10.73162378,1.745905689,-3.600168004,-4.574848322,0.103474606
7.362359293,1.399929818,0.00023494,-0.000643402,,,10.73862755,1.147671422,-8.027324569,-15.39747739,0.412943695
7.362359293,1.399929818,0.00023494,-0.000643402,,,10.74339007,0.507918441,-12.43496775,-27.12987317,0.760189932
7.367970922,1.184970017,0.000224524,-0.000581834,,,10.74391833,0.455821931,-12.77631229,-28.09319902,0.782986936
7.367970922,1.184970017,0.000224524,-0.000581834,,,10.75611047,0.797661831,-10.48000269,-21.79309309,0.607495769
7.370348757,2.217793586,0.000202512,-0.000770523,,,10.76174923,0.605828627,-11.77684381,-25.32152891,0.705334182
7.371344467,0.969993045,0.000204797,-0.000507294,,,10.76243725,0.173717378,-14.58018808,-33.3238756,0.869121652
7.374031293,0.754764991,0.000175922,-0.00041919,,,10.76422712,0.361460251,-13.38111645,-29.83873174,0.810292649
7.376031398,0.539285855,0.00013786,-0.000317238,,,10.76830235,1.004384299,-9.032318499,-18.00951719,0.488128908
7.376031398,0.539285855,0.00013786,-0.000317238,,,10.77169809,0.944750446,-9.450234331,-19.0989699,0.520820049
7.377624185,0.323344911,9.02482E-05,-0.000201002,,,10.78174442,0.029972717,-15.47833376,-35.99414523,0.88361261
7.377624185,0.323344911,9.02482E-05,-0.000201002,,,10.78947573,1.832760379,-2.919117667,-3.010740486,0.06581035
7.379346951,0.107781637,3.27339E-05,-7.06E-05,,,10.81177753,1.234586151,-7.358269446,-13.81941471,0.351806741
7.392993993,2.254986985,0.000195557,-0.000763866,,,10.81290634,1.976637172,-1.820846282,-0.420531255,0.00886149
7.40271066,2.085330912,0.000206258,-0.000746865,,,10.81961836,1.863567518,-2.673791289,-2.456080896,0.053085757
7.40271066,2.085330912,0.000206258,-0.000746865,,,10.82045369,1.044632021,-8.718135855,-17.27594648,0.453011247
7.406947597,2.042665456,0.000205278,-0.000738616,,,10.82477336,0.917743592,-9.610232894,-19.59322718,0.520440753
7.411184534,2,0.000202871,-0.000729038,,,10.82884608,0.733205623,-10.88306508,-22.97573201,0.615082419
7.411184534,2,0.000202871,-0.000729038,,,10.83345908,0.061161925,-15.27609874,-35.4039203,0.848623279
7.413784745,2.13793473,0.000203968,-0.000750131,,,10.83383022,0.241672142,-14.12944295,-32.05188598,0.811021129
7.41563923,2.292180385,0.000187163,-0.000755416,,,10.84084803,1.635063794,-4.385345362,-6.574024286,0.150070455
7.416095175,1.930900745,0.000210752,-0.000722428,,,10.87301337,1.890412306,-2.449742962,-1.972809474,0.042097338
7.421005815,1.86180149,0.000217283,-0.000714475,,,10.87710375,1.018689019,-8.872078104,-17.75018009,0.453291865
7.421005815,1.86180149,0.000217283,-0.000714475,,,10.87802768,0.951434444,-9.346154987,-18.97803523,0.48786194
7.421759418,1.721858935,0.000227142,-0.000696324,,,10.88069688,1.380858679,-6.254016817,-11.16871232,0.267455385
7.421759418,1.721858935,0.000227142,-0.000696324,,,10.885048,0.031189208,-15.45901068,-35.95147887,0.822347015
7.424858831,2.190538549,0.000199234,-0.0007507,,,10.88958593,1.540285129,-5.070624854,-8.285637327,0.190729753
7.424858831,2.190538549,0.000199234,-0.0007507,,,10.89122157,1.183699834,-7.685002173,-14.74576618,0.365118731
7.426411419,1.507820872,0.00023244,-0.000656881,,,10.89808125,1.48609154,-5.469035482,-9.26513588,0.215359083
7.426411419,1.507820872,0.00023244,-0.000656881,,,10.89862716,0.802621341,-10.37222746,-21.70146702,0.556424763
7.43513639,1.294148227,0.000227084,-0.00060384,,,10.90145799,0.610690422,-11.67969458,-25.22703285,0.644229053
7.43513639,1.294148227,0.000227084,-0.00060384,,,10.90393588,0.366322047,-13.30096991,-29.73595409,0.737017759
7.437634676,1.07790127,0.00021235,-0.00053783,,,10.90495395,0.178676888,-14.51637459,-33.21101934,0.787407129
7.437634676,1.07790127,0.00021235,-0.00053783,,,10.92410737,0.514207314,-12.3169916,-27.00373754,0.674414722
7.441008221,0.862924299,0.00018848,-0.000458503,,,10.92463563,0.462110804,-12.66307684,-27.96481418,0.69392002
7.441008221,0.862924299,0.00018848,-0.000458503,,,10.93076045,1.689383194,-3.939226995,-5.595249699,0.123075743
7.443008327,0.647445163,0.000155596,-0.000365337,,,10.93894256,1.161845916,-7.818426853,-15.14420445,0.367492
7.443008327,0.647445163,0.000155596,-0.000365337,,,10.94348764,0.831001908,-10.15428766,-21.18153825,0.528366449
7.444845392,0.431426619,0.000113445,-0.000257861,,,10.94567994,1.976637172,-1.770514156,-0.420546961,0.008778617
7.444845392,0.431426619,0.000113445,-0.000257861,,,10.94841152,0.153428411,-14.66983965,-33.67330755,0.769000536
7.446193901,0.215563274,6.17731E-05,-0.000136148,,,10.96090307,1.720190333,-3.695847369,-5.040002898,0.109240946
7.446193901,0.215563274,6.17731E-05,-0.000136148,,,10.97565786,1.890412306,-2.409869176,-1.972980775,0.041394205
7.447504067,2.227731948,0.000192711,-0.000744352,,,10.98037073,1.372907562,-6.264847691,-11.3149012,0.260215856
7.447916667,0,0,0,,,10.98223763,1.77957041,-3.241519432,-3.969787705,0.084659326
7.468791885,2.042665456,0.000200377,-0.000721691,,,10.99255277,0.6441444,-11.41485035,-24.60952385,0.594274737
7.468791885,2.042665456,0.000200377,-0.000721691,,,10.99563764,0.33991513,-13.44609921,-30.21681804,0.700501493
7.470149304,2.264925348,0.000184719,-0.000736202,,,11.01621751,0.026273228,-15.47749295,-36.02040232,0.750178902
7.473028822,2,0.000198422,-0.000713094,,,11.01730499,1.020050565,-8.793556736,-17.72788232,0.419233
7.473028822,2,0.000198422,-0.000713094,,,11.01808329,0.963396521,-9.193692783,-18.76154584,0.445210206
7.477939462,1.930900745,0.000206445,-0.000707145,,,11.02809172,1.351053644,-6.403170908,-11.71181496,0.264570148
7.479865971,2.095269274,0.000199329,-0.000725682,,,11.03197285,1.579292053,-4.718059857,-7.583215313,0.164742972
7.482850103,1.86180149,0.000213086,-0.00069985,,,11.03562171,1.132076285,-7.986119272,-15.68782182,0.363405171
7.487760743,1.792702235,0.000218393,-0.000691229,,,11.03741324,0.672524966,-11.20336024,-24.08742982,0.566082432
7.487760743,1.792702235,0.000218393,-0.000691229,,,11.03767606,0.123239462,-14.84968787,-34.22095671,0.727165295
7.490463545,1.615711926,0.000226917,-0.000665144,,,11.03909522,0.314666654,-13.600369,-30.67996635,0.686651525
7.490463545,1.615711926,0.000226917,-0.000665144,,,11.03927249,0.866329951,-9.86475491,-20.53553525,0.483276579
7.490940056,2.147873093,0.000195774,-0.000726962,,,11.04205772,1.514958307,-5.190860945,-8.745735108,0.191298878
7.499188516,1.402039281,0.000226854,-0.000620709,,,11.0465988,1.972265755,-1.765826167,-0.499248913,0.010237489
7.502014142,2.200476911,0.000189725,-0.0007255,,,11.05709944,1.863567518,-2.581005272,-2.456613463,0.050767196
7.502014142,2.200476911,0.000189725,-0.0007255,,,11.0582505,0.523806875,-12.20329481,-26.82147378,0.613950172
7.504800144,1.187079481,0.00021708,-0.00056342,,,11.0588776,0.461962592,-12.61776505,-27.96063114,0.634462553
7.50729843,0.970832524,0.000198114,-0.000492588,,,11.06561056,1.720190333,-3.653649593,-5.040756391,0.10587442
7.50729843,0.970832524,0.000198114,-0.000492588,,,11.06775546,1.615863512,-4.431245019,-6.923164992,0.147583332
7.509985255,0.75560447,0.000170268,-0.000408243,,,11.09870778,1.489015305,-5.358708441,-9.215672546,0.197648814
7.509985255,0.75560447,0.000170268,-0.000408243,,,11.0997374,1.972265755,-1.746284894,-0.499249442,0.010113675
7.511822321,0.539585926,0.000133398,-0.000309592,,,11.10186244,1.863567518,-2.56422833,-2.456693689,0.050153909
7.513415108,0.323644982,8.73466E-05,-0.000196671,,,11.10454106,1.278348813,-6.899312563,-13.03183472,0.286525278
7.514763617,0.107781637,3.16485E-05,-6.92E-05,,,11.10778172,0.247889367,-14.0233832,-31.90799116,0.669678199
7.514763617,0.107781637,3.16485E-05,-6.92E-05,,,11.11037356,1.720190333,-3.636133561,-5.041006359,0.10431019
7.524659378,2.237670311,0.000182142,-0.000717662,,,11.11046652,0.431989876,-12.80211334,-28.51048737,0.621569484
7.53487311,2,0.000193888,-0.000697345,,,11.11150482,0.557497727,-11.95755183,-26.19981116,0.580989403
7.53487311,2,0.000193888,-0.000697345,,,11.11188441,0.74381475,-10.6842741,-22.77906133,0.511985794
7.53487311,2,0.000193888,-0.000697345,,,11.12089406,1.615863512,-4.409957781,-6.923847372,0.144640797
7.53487311,2,0.000193888,-0.000697345,,,11.1545751,1.522621714,-5.087840922,-8.608914145,0.179399543
7.53487311,2,0.000193888,-0.000697345,,,11.16116311,1.585136175,-4.622286116,-7.479213257,0.154266914
7.53487311,2,0.000193888,-0.000697345,,,11.16374571,0.463637089,-12.57421355,-27.92524972,0.589889229
7.53978375,1.930900745,0.000202047,-0.000692062,,,11.1654111,0.527300658,-12.144208,-26.75369644,0.569826015
7.53978375,1.930900745,0.000202047,-0.000692062,,,11.17425176,0.123239462,-14.83040829,-34.20484771,0.659119667
7.544694391,1.86180149,0.000208787,-0.000685428,,,11.17675868,1.358470682,-6.285398026,-11.58041147,0.243317276
7.544694391,1.86180149,0.000208787,-0.000685428,,,11.17841589,0.314666654,-13.56636984,-30.66977543,0.622529526
7.545947196,2.052603818,0.000194132,-0.000702086,,,11.18135956,1.139347189,-7.870527084,-15.55859613,0.332420477
7.545947196,2.052603818,0.000194132,-0.000702086,,,11.18501034,0.873600855,-9.753336563,-20.40393384,0.438873647
7.549605031,1.792702235,0.000214167,-0.000677466,,,11.18562705,1.890412306,-2.331680938,-1.973252422,0.039186927
7.549605031,1.792702235,0.000214167,-0.000677466,,,11.1860802,0.679942005,-11.09640389,-23.94976051,0.510976092
7.554515671,1.72360298,0.000218246,-0.000668192,,,11.19220682,1.77957041,-3.16111762,-3.970665615,0.079321271
7.554515671,1.72360298,0.000218246,-0.000668192,,,11.19288212,0.026273228,-15.46306519,-35.99502639,0.660018728
7.554515671,1.72360298,0.000218246,-0.000668192,,,11.20582109,1.029455688,-8.645505701,-17.55980868,0.371944287
7.554515671,1.72360298,0.000218246,-0.000668192,,,11.20659939,0.972801644,-9.046818163,-18.59283306,0.394284645
7.554515671,1.72360298,0.000218246,-0.000668192,,,11.20708354,1.976637172,-1.674680146,-0.420554588,0.008278587
7.554515671,1.72360298,0.000218246,-0.000668192,,,11.22230667,1.720190333,-3.594011863,-5.041724424,0.100039379
7.554515671,1.72360298,0.000218246,-0.000668192,,,11.22329732,0.341325697,-13.37842908,-30.17544498,0.596773681
7.557021281,2.105207637,0.000191798,-0.000704105,,,11.2238203,1.386780116,-6.059501787,-11.06826456,0.226420642
7.557021281,2.105207637,0.000191798,-0.000704105,,,11.23148989,0.654504537,-11.25551057,-24.41593632,0.504142273
7.563240642,1.509930335,0.000223727,-0.000632412,,,11.25622859,1.694306177,-3.77480313,-5.508974038,0.108005572
7.568095367,2.157811455,0.000186898,-0.000703362,,,11.26439681,0.153428411,-14.61960222,-33.63820367,0.612796589
7.568095367,2.157811455,0.000186898,-0.000703362,,,11.27612562,1.178668078,-7.55024893,-14.8455137,0.299584143
7.571965612,1.296257691,0.000218905,-0.000583702,,,11.2806707,0.847824069,-9.898078168,-20.87592325,0.421892296
7.571965612,1.296257691,0.000218905,-0.000583702,,,11.29535479,1.890412306,-2.292980028,-1.9733768,0.03769079
7.574463898,1.080010734,0.000204946,-0.000521819,,,11.30119038,0.470348122,-12.49097463,-27.79676246,0.533266992
7.576962184,0.863763778,0.000181962,-0.000445977,,,11.30259328,0.523977165,-12.12626688,-26.81104149,0.518413341
7.576962184,0.863763778,0.000181962,-0.000445977,,,11.30291862,1.516372938,-5.07743023,-8.723807635,0.16959721
7.576962184,0.863763778,0.000181962,-0.000445977,,,11.30846825,1.569033995,-4.686318953,-7.771787388,0.150086977
7.576962184,0.863763778,0.000181962,-0.000445977,,,11.30927823,0.180087454,-14.43665095,-33.14235799,0.588887858
7.576962184,0.863763778,0.000181962,-0.000445977,,,11.3183064,0.37293857,-13.14498445,-29.5881446,0.549886262
7.576962184,0.863763778,0.000181962,-0.000445977,,,11.32318724,1.206977511,-7.328580682,-14.33199384,0.28088169
7.57879925,0.647745234,0.000150203,-0.00035616,,,11.32419502,0.031189208,-15.42150122,-35.88836747,0.597709803
7.579169452,2.210415274,0.000179452,-0.000699821,,,11.32488698,0.624495577,-11.432228,-24.96532842,0.481527274
7.579169452,2.210415274,0.000179452,-0.000699821,,,11.32529235,1.411139479,-5.842895297,-10.62865907,0.205670308
7.579169452,2.210415274,0.000179452,-0.000699821,,,11.32608038,0.822386602,-10.06029464,-21.34125696,0.417929897
7.580636315,0.43172669,0.000109527,-0.000252029,,,11.3457108,1.042067962,-8.50298233,-17.3323613,0.336407906
7.580636315,0.43172669,0.000109527,-0.000252029,,,11.34663474,0.974813387,-8.980415056,-18.55814885,0.359988625
7.581984824,0.215863345,5.96628E-05,-0.000133449,,,11.34901954,1.976637172,-1.625643361,-0.420570047,0.007855761
7.583333333,0,0,0,,,11.35132391,1.658155962,-4.010215577,-6.16218178,0.115903761
7.583333333,0,0,0,,,11.35573155,1.863567518,-2.474041693,-2.457107126,0.045803535
7.583333333,0,0,0,,,11.3774742,0.062836422,-15.20798754,-35.29876699,0.571391282
7.594214687,2,0.000189467,-0.000682448,,,11.38477644,0.248288665,-13.96989621,-31.87974776,0.546001712
7.594214687,2,0.000189467,-0.000682448,,,11.38965347,1.837683362,-2.656826727,-2.92364025,0.053692306
7.599125327,1.930900745,0.000197747,-0.00067781,,,11.39801291,0.754281682,-10.51222366,-22.58723422,0.418870606
7.5991764,2.025989216,0.000189648,-0.000684704,,,11.40054102,0.944616317,-9.175763928,-19.10958496,0.357349908
7.5991764,2.025989216,0.000189648,-0.000684704,,,11.40157812,1.075674371,-8.243659081,-16.72119548,0.312951007
7.604035968,1.86180149,0.000204571,-0.000671816,,,11.40211084,1.272137855,-6.828833564,-13.15010896,0.245100831
7.608946608,1.792702235,0.000210008,-0.000664491,,,11.42827918,0.031647214,-15.41187869,-35.86886111,0.551184361
7.608946608,1.792702235,0.000210008,-0.000664491,,,11.45255719,1.972265755,-1.624528629,-0.499261984,0.008922336
7.610250486,2.078593035,0.000187968,-0.000686964,,,11.45447188,1.768997858,-3.149775669,-4.162292145,0.074119279
7.621324571,2.131196853,0.000183659,-0.000686445,,,11.45497729,0.181954696,-14.40504523,-33.09675348,0.525928388
7.627292768,1.61782139,0.000217637,-0.000638963,,,11.45598116,0.976830752,-8.92957263,-18.52277754,0.333708739
7.627292768,1.61782139,0.000217637,-0.000638963,,,11.45794219,1.04063423,-8.475067594,-17.36010187,0.312784386
7.632398657,2.183800672,0.00017674,-0.000683101,,,11.46113481,0.374769021,-13.10322643,-29.54818119,0.49297835
7.636017738,1.404148745,0.000218017,-0.00059892,,,11.46771539,0.626326029,-11.37979732,-24.93015278,0.433248984
7.641629366,1.189188944,0.000208895,-0.000545798,,,11.47177943,0.824253843,-10.00108607,-21.3079054,0.376718831
7.644127652,0.972941988,0.000190848,-0.000478898,,,11.47965072,1.399177371,-5.877260736,-10.84752451,0.19200999
7.644127652,0.972941988,0.000190848,-0.000478898,,,11.48064799,1.194774982,-7.362078509,-14.55624245,0.258439398
7.645776178,0.755904541,0.000163968,-0.000397592,,,11.48594305,0.472715864,-12.43102238,-27.74776488,0.463694538
7.645776178,0.755904541,0.000163968,-0.000397592,,,11.48734595,0.526344907,-12.06334338,-26.76334225,0.451171487
7.647613244,0.539885998,0.000128482,-0.000302298,,,11.49282624,1.941538418,-1.843282196,-1.052586871,0.01842855
7.649206031,0.323945053,8.4137E-05,-0.000192534,,,11.49777449,0.155681468,-14.57649957,-33.57748265,0.511160201
7.65055454,0.108081708,3.05264E-05,-6.80E-05,,,11.50258563,1.500899607,-5.123304385,-9.005947139,0.156844799
7.65055454,0.108081708,3.05264E-05,-6.80E-05,,,11.50568228,1.646193854,-4.04814197,-6.379211172,0.110591305
7.653556264,2,0.000184983,-0.000667797,,,11.50813525,1.553560663,-4.733257955,-8.053408105,0.139645693
7.653556264,2,0.000184983,-0.000667797,,,11.51848121,0.851390703,-9.796793632,-20.81239379,0.356239283
7.658466904,1.930900745,0.000193375,-0.000663811,,,11.52812807,1.165257798,-7.559762397,-15.0934564,0.259501366
7.658517977,2.025989216,0.000184846,-0.000669492,,,11.54711422,1.825480833,-2.698196557,-3.143913087,0.053278973
7.663377545,1.86180149,0.00020027,-0.000658466,,,11.54798546,1.969272663,-1.617152169,-0.55315684,0.009411196
7.663377545,1.86180149,0.00020027,-0.000658466,,,11.55374904,0.34556068,-13.28516164,-30.08128113,0.462877448
7.66347969,2.051978432,0.000184054,-0.000670519,,,11.5592021,0.026659043,-15.4379999,-35.94836962,0.495831686
7.66347969,2.051978432,0.000184054,-0.000670519,,,11.5619416,0.658739521,-11.13155714,-24.33556799,0.395054195
7.674553776,2.104582251,0.000180352,-0.000670237,,,11.58094806,1.359104255,-6.138342142,-11.57506606,0.192000459
7.685627861,2.157186069,0.000173968,-0.000667105,,,11.58552468,0.125049202,-14.77428934,-34.1350392,0.478320353
7.695779439,1.731721622,0.000207802,-0.000640125,,,11.59357936,1.848843661,-2.509133884,-2.72277245,0.044961527
7.695779439,1.731721622,0.000207802,-0.000640125,,,11.59654624,0.319287452,-13.45727579,-30.56232137,0.450885582
7.700069864,1.512039799,0.000214297,-0.000609056,,,11.59880589,0.980858387,-8.858236477,-18.45092111,0.299769298
7.700069864,1.512039799,0.000214297,-0.000609056,,,11.60045783,1.034605288,-8.474844184,-17.47170223,0.284256671
7.708794834,1.298367155,0.000209993,-0.000564564,,,11.60864338,0.68587638,-10.93161748,-23.83853948,0.374253203
7.708794834,1.298367155,0.000209993,-0.000564564,,,11.61335635,1.666630317,-3.863672628,-6.010652569,0.097651563
7.71129312,1.082120198,0.00019685,-0.000506628,,,11.61707628,0.881572171,-9.556840728,-20.26194987,0.322505139
7.71129312,1.082120198,0.00019685,-0.000506628,,,11.62299774,0.469522744,-12.42524762,-27.80285613,0.415859145
7.712897841,2,0.000180445,-0.000653434,,,11.62466314,0.533186312,-11.98652963,-26.63524133,0.40286174
7.712897841,2,0.000180445,-0.000653434,,,11.624825,1.133682011,-7.758168894,-15.66884978,0.251199584
7.71358073,0.86438244,0.000174783,-0.000433973,,,11.62842814,1.329587071,-6.339470667,-12.11084855,0.194356469
7.71358073,0.86438244,0.000174783,-0.000433973,,,11.6509007,1.48415862,-5.20173109,-9.310305481,0.147257793
7.714590173,0.648045305,0.00014432,-0.000347464,,,11.65748872,1.546673081,-4.739354737,-8.179154212,0.128874721
7.714590173,0.648045305,0.00014432,-0.000347464,,,11.65982148,1.689993145,-3.676629612,-5.588944169,0.088143982
7.716427238,0.432026762,0.000105243,-0.000246496,,,11.66099705,1.974115844,-1.547090591,-0.465975074,0.007450303
7.716427238,0.432026762,0.000105243,-0.000246496,,,11.66188305,0.251529559,-13.90956288,-31.80451116,0.435376278
7.717775747,0.216163417,5.73419E-05,-0.000130884,,,11.67242524,1.878585552,-2.263116909,-2.186782033,0.034446387
7.717775747,0.216163417,5.73419E-05,-0.000130884,,,11.67380272,0.438333536,-12.63050291,-28.37374537,0.403808003
7.717808481,1.930900745,0.000188933,-0.000650111,,,11.68010328,0.565400747,-11.7527129,-26.04390601,0.378263465
7.717808481,1.930900745,0.000188933,-0.000650111,,,11.68677876,0.753616518,-10.43985417,-22.59937885,0.335736319
7.717859554,2.025989216,0.000179969,-0.000654563,,,11.70236488,1.260721527,-6.819294095,-13.36136521,0.202790482
7.71875,0,0,0,,,11.70726478,1.449118479,-5.443451398,-9.945241671,0.151021401
7.722821267,2.051978432,0.00017882,-0.000655012,,,11.71264794,1.574407326,-4.519186624,-7.677920424,0.116443323
7.72778298,2.077967649,0.000177,-0.000654775,,,11.72210038,0.125049202,-14.76333573,-34.12596401,0.424718463
7.72778298,2.077967649,0.000177,-0.000654775,,,11.72363564,1.755781548,-3.168688687,-4.401501526,0.06663183
7.738857066,2.130571467,0.000171162,-0.00065187,,,11.73042331,0.469964549,-12.40316173,-27.79224785,0.379155095
7.750210376,1.800820877,0.000199099,-0.000635383,,,11.73505847,0.533368192,-11.96415406,-26.62999576,0.366600964
7.768556536,1.625940032,0.00020718,-0.000614122,,,11.73586671,0.026659043,-15.42981261,-35.93398321,0.425118094
7.772239418,2,0.000175861,-0.000639409,,,11.73586691,0.319287452,-13.43783406,-30.55668717,0.399670713
7.772239418,2,0.000175861,-0.000639409,,,11.76007146,0.684816692,-10.90564403,-23.85714793,0.329771215
7.772239418,2,0.000175861,-0.000639409,,,11.76201873,1.543068032,-4.737495829,-8.245057745,0.120470359
7.772239418,2,0.000175861,-0.000639409,,,11.76322358,1.480293646,-5.199594682,-9.381175299,0.136686966
7.772239418,2,0.000175861,-0.000639409,,,11.76552084,0.880533362,-9.527560261,-20.28171093,0.285842929
7.77284696,1.406258209,0.000208467,-0.000578375,,,11.77326956,1.132643201,-7.726225363,-15.6893386,0.223841703
7.77284696,1.406258209,0.000208467,-0.000578375,,,11.77947884,1.689993145,-3.644241486,-5.589357454,0.081038953
7.777201131,2.025989216,0.000175021,-0.000639965,,,11.77985622,1.328527383,-6.30615227,-12.13166094,0.173632904
7.777201131,2.025989216,0.000175021,-0.000639965,,,11.78356308,0.345932849,-13.24892845,-30.06593707,0.379294203
7.778458589,1.191298408,0.000200025,-0.000529219,,,11.78972504,1.878585552,-2.231322293,-2.186871735,0.031796518
7.778458589,1.191298408,0.000200025,-0.000529219,,,11.79082321,0.979514657,-8.818640306,-18.47705039,0.257089942
7.780746198,0.97356065,0.000182825,-0.000465558,,,11.79247515,1.033261557,-8.434541283,-17.49802649,0.244114153
7.782162844,2.051978432,0.000173488,-0.000639829,,,11.80636472,0.657833045,-11.08514482,-24.3504592,0.321562485
7.782162844,2.051978432,0.000173488,-0.000639829,,,11.81272772,1.974115844,-1.505655269,-0.465979725,0.006718159
7.782394724,0.756523204,0.000157158,-0.00038764,,,11.81375977,0.155681468,-14.54795821,-33.55780557,0.387944927
7.783404167,0.540186069,0.00012316,-0.000295427,,,11.8210679,1.663593488,-3.830001608,-6.066393434,0.085092348
7.783404167,0.540186069,0.00012316,-0.000295427,,,11.82699491,1.354788782,-6.102903902,-11.65574723,0.160656983
7.784996954,0.324245125,8.06506E-05,-0.00018863,,,11.86145594,0.182326864,-14.36221712,-33.06604418,0.368465374
7.784996954,0.324245125,8.06506E-05,-0.00018863,,,11.86192661,0.848987284,-9.73001344,-20.85769255,0.268776318
7.785971207,0.108081708,2.92197E-05,-6.67E-05,,,11.86496738,1.848843661,-2.435740872,-2.723066619,0.037308718
7.787124557,2.077967649,0.000171264,-0.000638992,,,11.8674262,0.031647214,-15.39065781,-35.8332401,0.375069921
7.787124557,2.077967649,0.000171264,-0.000638992,,,11.87157347,1.16285438,-7.485247296,-15.14092402,0.198809021
7.79208627,2.103956865,0.00016835,-0.000637447,,,11.87507871,0.474889226,-12.34666224,-27.69895553,0.33083672
7.79208627,2.103956865,0.00016835,-0.000637447,,,11.87898328,0.528299313,-11.97539033,-26.7205538,0.321701381
7.79208627,2.103956865,0.00016835,-0.000637447,,,11.88561079,0.376514747,-13.02557454,-29.50185586,0.340433158
7.804641313,1.869920132,0.000188924,-0.0006284,,,11.90269016,1.535826422,-4.756414255,-8.376876672,0.109143706
7.829179563,2,0.000171419,-0.000626338,,,11.90370511,1.482946409,-5.145761785,-9.33405316,0.12117935
7.829179563,2,0.000171419,-0.000626338,,,11.90392592,0.627044699,-11.28307895,-24.91290527,0.298404908
7.834141276,2.025989216,0.000170201,-0.000626337,,,11.90655644,1.822444005,-2.62376597,-3.199139099,0.04228074
7.837043207,1.739840264,0.000196725,-0.000613579,,,11.90821987,0.822003637,-9.911764698,-21.35025393,0.262439231
7.837043207,1.739840264,0.000196725,-0.000613579,,,11.91871216,1.189115779,-7.285195057,-14.66401244,0.184743137
7.839102989,2.051978432,0.000168269,-0.000625623,,,11.91871688,1.631949045,-4.041588376,-6.638579316,0.085731983
7.841333632,1.520158441,0.000203811,-0.000587456,,,11.92347768,1.383905507,-5.867732173,-11.1285429,0.141205333
7.844064703,2.077967649,0.000165625,-0.00062419,,,11.92404679,0.063278227,-15.17245801,-35.24882371,0.352994822
7.845624057,1.300476618,0.00020042,-0.000546738,,,11.92515252,1.969272663,-1.514379247,-0.553181873,0.007287797
7.845624057,1.300476618,0.00020042,-0.000546738,,,11.93329143,0.973490552,-8.830826474,-18.58767508,0.226886861
7.845624057,1.300476618,0.00020042,-0.000546738,,,11.93525247,1.03729403,-8.374252863,-17.42563058,0.213578315
7.845624057,1.300476618,0.00020042,-0.000546738,,,11.94582812,0.250034391,-13.89066698,-31.81979426,0.332989636
7.845624057,1.300476618,0.00020042,-0.000546738,,,11.97328726,0.031631013,-15.38701066,-35.82713385,0.336413855
7.845624057,1.300476618,0.00020042,-0.000546738,,,11.97452331,1.937933369,-1.739607814,-1.117590862,0.014068446
7.847911666,1.08273886,0.00018804,-0.000492077,,,11.982668,0.753961543,-10.37882191,-22.5926134,0.255303762
7.850199276,0.865001102,0.000167078,-0.000422786,,,11.98480628,1.754753049,-3.112637042,-4.420584069,0.054252202
7.850199276,0.865001102,0.000167078,-0.000422786,,,11.98824662,0.941457997,-9.048704994,-19.17163339,0.22078894
7.851208718,0.648663967,0.000138017,-0.000339424,,,11.99121127,1.068469197,-8.139504053,-16.85849442,0.196069281
7.852218161,0.432326833,0.000100638,-0.000241312,,,11.99438236,1.255827182,-6.785990182,-13.45275921,0.1583106
7.852218161,0.432326833,0.000100638,-0.000241312,,,12.01439918,0.182260816,-14.35169197,-33.06053782,0.314359541
7.852218161,0.432326833,0.000100638,-0.000241312,,,12.02243532,1.968660706,-1.496951126,-0.564210493,0.006813358
7.852218161,0.432326833,0.000100638,-0.000241312,,,12.03554066,0.376450001,-13.00933548,-29.49917961,0.290943768
7.852218161,0.432326833,0.000100638,-0.000241312,,,12.04590995,0.973000652,-8.813224803,-18.59710083,0.202303343
7.852218161,0.432326833,0.000100638,-0.000241312,,,12.04691357,1.036208374,-8.360600601,-17.44599757,0.190863541
7.853192414,0.216163417,5.4773E-05,-0.000128314,,,12.05385579,0.626979953,-11.26083767,-24.91283323,0.255105881
7.854166667,0,0,0,,,12.0555964,1.819949121,-2.60972074,-3.244292809,0.03739417
7.859072249,1.939019387,0.000177151,-0.000619196,,,12.05587846,0.155601773,-14.53255327,-33.54792508,0.301641129
7.859072249,1.939019387,0.000177151,-0.000619196,,,12.06116311,0.821937589,-9.885525912,-21.3515187,0.224070481
7.886119709,2,0.000166944,-0.000613726,,,12.06482037,1.629503317,-4.028615612,-6.683230057,0.075128564
7.886119709,2,0.000166944,-0.000613726,,,12.06775212,1.186620896,-7.273416686,-14.71032006,0.159572926
7.891081422,2.025989216,0.00016531,-0.000613148,,,12.06901731,0.474805474,-12.32240628,-27.69699922,0.269773057
7.891474144,1.808939519,0.000187667,-0.000608121,,,12.06958117,1.381459779,-5.855468125,-11.17376602,0.122795756
7.896043135,2.051978432,0.000162954,-0.000611845,,,12.07292189,0.528215561,-11.94947678,-26.71930053,0.262310704
7.909820304,1.634058674,0.000196059,-0.000591086,,,12.09167924,1.532662802,-4.7401092,-8.434944119,0.091538213
7.914110729,1.414376851,0.000198028,-0.000559919,,,12.09269418,1.47978279,-5.129620524,-9.392275994,0.101424427
7.914110729,1.414376851,0.000198028,-0.000559919,,,12.09595661,1.845833277,-2.407333207,-2.777485126,0.030792023
7.915077134,1.19191707,0.000190499,-0.000513615,,,12.10368351,0.026645396,-15.41723886,-35.91170895,0.290460972
7.915077134,1.19191707,0.000190499,-0.000513615,,,12.10973766,0.848508554,-9.689453421,-20.86673638,0.208025231
7.916012395,1.939019387,0.000172707,-0.00060741,,,12.11467473,1.159444959,-7.46156141,-15.20452134,0.156191818
7.917364744,0.974179312,0.000174286,-0.000453253,,,12.13044493,0.345783049,-13.21317561,-30.05882786,0.263164646
7.91901327,0.757141866,0.000149905,-0.000378434,,,12.14039441,0.124985188,-14.73916164,-34.10610943,0.274239405
7.920022712,0.540804731,0.000117511,-0.000289151,,,12.14224898,1.973600343,-1.435095938,-0.475267426,0.005086719
7.920022712,0.540804731,0.000117511,-0.000289151,,,12.15324657,0.657683245,-11.03209956,-24.35087302,0.22324891
7.920413621,0.324245125,7.6877E-05,-0.000184847,,,12.15909694,1.657934985,-3.799690593,-6.16955573,0.062735458
7.920413621,0.324245125,7.6877E-05,-0.000184847,,,12.16502394,1.349130279,-6.07470666,-11.76049659,0.115819412
7.921387874,0.108081708,2.78254E-05,-6.55E-05,,,12.17192421,0.319124006,-13.3948557,-30.54626326,0.251969133
7.943059854,2,0.000162367,-0.00060165,,,12.17412338,1.876167498,-2.164461852,-2.230618055,0.022752859
7.943059854,2,0.000162367,-0.00060165,,,12.19188186,0.97717075,-8.759962334,-18.52159071,0.17005293
7.945905081,1.878038774,0.000177195,-0.000600608,,,12.19272728,1.030415796,-8.378206067,-17.55203519,0.162026582
7.945905081,1.878038774,0.000177195,-0.000600608,,,12.19945715,1.683819141,-3.600069163,-5.701922774,0.05540406
7.948021568,2.025989216,0.000160314,-0.000600461,,,12.20182112,0.68425421,-10.83904374,-23.86509304,0.206798826
7.97295254,1.939019387,0.000168254,-0.000596238,,,12.21051597,0.878597595,-9.461008427,-20.31802676,0.179759567
7.978306976,1.747958906,0.000185142,-0.000589406,,,12.21194656,1.321954343,-6.265438462,-12.25367588,0.113663476
7.978306976,1.747958906,0.000185142,-0.000589406,,,12.21250946,0.469756362,-12.34285515,-27.78717708,0.226590514
7.9825974,1.528277083,0.000192698,-0.000567816,,,12.2144816,1.128353395,-7.670010509,-15.77023945,0.143132674
7.9825974,1.528277083,0.000192698,-0.000567816,,,12.21714462,0.533160005,-11.89898176,-26.6270611,0.219101486
7.98445424,1.300638341,0.000190083,-0.000529932,,,12.23010694,0.251400798,-13.86058736,-31.78567386,0.237742983
7.98445424,1.300638341,0.000190083,-0.000529932,,,12.2318015,1.535204011,-4.696850827,-8.389401749,0.077280047
7.984530212,1.083357522,0.000178743,-0.000478818,,,12.23300635,1.472429625,-5.159431736,-9.525963052,0.087143552
7.984530212,1.083357522,0.000178743,-0.000478818,,,12.25413748,1.750917766,-3.090354538,-4.490164251,0.040994501
7.986817821,0.865619764,0.000158944,-0.000412548,,,12.26174993,0.438109149,-12.55954219,-28.36562207,0.214491586
7.986817821,0.865619764,0.000158944,-0.000412548,,,12.27480795,0.56470266,-11.67218494,-26.04958663,0.19940524
7.987827264,0.649282629,0.000131354,-0.000332036,,,12.27697011,0.124985188,-14.73357604,-34.10118698,0.22845964
7.987827264,0.649282629,0.000131354,-0.000332036,,,12.27971351,1.565931348,-4.462248712,-7.833480427,0.067918046
7.988080101,0.432576241,9.57559E-05,-0.000236499,,,12.28034812,0.026645396,-15.41289743,-35.90392108,0.230202629
7.988080101,0.432576241,9.57559E-05,-0.000236499,,,12.28170376,0.751616006,-10.35380322,-22.63464533,0.178089073
7.98860908,0.216163417,5.20572E-05,-0.000125927,,,12.28870865,1.440168802,-5.388201835,-10.11056084,0.085603991
7.98860908,0.216163417,5.20572E-05,-0.000125927,,,12.28968041,1.253985992,-6.748924602,-13.48767136,0.112070312
7.989583333,0,0,0,,,12.29951777,1.876167498,-2.143377961,-2.230662122,0.019413008
8,2,0.00015749,-0.000590113,,,12.30445023,1.973600343,-1.406783772,-0.475269865,0.004159503
8,2,0.00015749,-0.000590113,,,12.31124488,0.319124006,-13.38531256,-30.54315348,0.20777054
8,2,0.00015749,-0.000590113,,,12.32737178,1.683819141,-3.579972332,-5.702093053,0.046744399
8.002845226,1.878038774,0.000172743,-0.000590295,,,12.33009636,0.469653656,-12.33360066,-27.78745175,0.191546813
8.029892686,1.939019387,0.000163845,-0.000585829,,,12.33851922,0.532843524,-11.89011468,-26.63154299,0.184039426
8.029892686,1.939019387,0.000163845,-0.000585829,,,12.34462964,1.534386841,-4.686157117,-8.404465614,0.066193389
8.032737912,1.817058161,0.000175904,-0.000583811,,,12.35241992,1.471398681,-5.149639779,-9.544978382,0.073849141
8.032737912,1.817058161,0.000175904,-0.000583811,,,12.35658387,0.683382674,-10.82868565,-23.88024186,0.165706397
8.051084072,1.642177316,0.000184458,-0.000570644,,,12.3622295,0.877743231,-9.448699312,-20.33363589,0.144663466
8.051084072,1.642177316,0.000184458,-0.000570644,,,12.36619514,1.12749903,-7.655753705,-15.78626416,0.115401862
8.052940912,1.414538573,0.000187179,-0.000542478,,,12.36670931,1.321082807,-6.249812509,-12.27005022,0.091509165
8.053907317,1.192078793,0.000180352,-0.000499283,,,12.36881869,0.345696531,-13.19674972,-30.05551576,0.188285097
8.05398329,0.974797974,0.00016535,-0.000442134,,,12.37186374,0.155601773,-14.51811912,-33.53726388,0.196325895
8.05398329,0.974797974,0.00016535,-0.000442134,,,12.38205596,1.657246616,-3.770301063,-6.182370424,0.04650324
8.055631816,0.757760528,0.000142306,-0.000370068,,,12.38607249,1.845833277,-2.359132977,-2.77762247,0.021183232
8.055631816,0.757760528,0.000142306,-0.000370068,,,12.38812769,0.976065605,-8.742961998,-18.54208168,0.128330377
8.05582219,2,0.000153281,-0.000580214,,,12.38897312,1.029310651,-8.360682809,-17.57264062,0.122316787
8.055884653,0.541054139,0.000111556,-0.000283291,,,12.4102531,0.656545112,-11.01344413,-24.37017655,0.153867083
8.056275561,0.324494533,7.29584E-05,-0.00018148,,,12.41243427,0.031631013,-15.37581999,-35.80791787,0.186418505
8.05680454,0.108081708,2.63618E-05,-6.44E-05,,,12.42037854,1.347390294,-6.051067092,-11.79293027,0.080724989
8.05680454,0.108081708,2.63618E-05,-6.44E-05,,,12.4256298,1.968660706,-1.42680192,-0.564218693,0.004088559
8.059785372,1.878038774,0.000168348,-0.000580786,,,12.42943755,0.182174298,-14.3316898,-33.04900228,0.176906983
8.059785372,1.878038774,0.000168348,-0.000580786,,,12.44075667,1.819260752,-2.551784653,-3.256914715,0.022595847
8.085714876,1.939019387,0.000159729,-0.000576698,,,12.46074625,0.846531873,-9.661567492,-20.90265544,0.124811212
8.089678058,1.817058161,0.00017143,-0.000575111,,,12.46568331,1.157468278,-7.428031995,-15.24166497,0.094181985
8.089678058,1.817058161,0.00017143,-0.000575111,,,12.48078071,0.063175521,-15.1560187,-35.22790345,0.163631921
8.111644381,2,0.000150066,-0.000571857,,,12.49054592,1.937116199,-1.657630867,-1.132348469,0.007270305
8.115607562,1.878038774,0.000164145,-0.000572457,,,12.50016758,0.376044171,-12.97780989,-29.49806364,0.14679434
8.119570744,1.756077549,0.000173366,-0.000568775,,,12.50813936,0.474300232,-12.28922429,-27.70049021,0.139316796
8.119570744,1.756077549,0.000173366,-0.000568775,,,12.51064378,1.626274393,-3.985484067,-6.742428339,0.040132719
8.119570744,1.756077549,0.000173366,-0.000568775,,,12.51441548,0.81969431,-9.848290847,-21.39201259,0.114355149
8.119570744,1.756077549,0.000173366,-0.000568775,,,12.51523463,0.527530239,-11.91494931,-26.7271288,0.134254369
8.119570744,1.756077549,0.000173366,-0.000568775,,,12.51879767,1.528642915,-4.708048405,-8.508749188,0.049306253
8.119570744,1.756077549,0.000173366,-0.000568775,,,12.51935254,1.183775766,-7.232269477,-14.76366084,0.082296518
8.119570744,1.756077549,0.000173366,-0.000568775,,,12.52536007,1.475582823,-5.098905434,-9.469540822,0.053825956
8.119570744,1.756077549,0.000173366,-0.000568775,,,12.52667977,0.031544507,-15.3745654,-35.80627787,0.149365301
8.121427583,1.528438806,0.000181522,-0.00055013,,,12.53344926,0.625729426,-11.22198505,-24.93244764,0.123228676
8.123284423,1.300800063,0.000179399,-0.000515159,,,12.53373132,0.97025352,-8.770845585,-18.64806325,0.098018738
8.123284423,1.300800063,0.000179399,-0.000515159,,,12.53473493,1.033461241,-8.316679113,-17.49730744,0.092596964
8.123360395,1.083519244,0.000168919,-0.000466717,,,12.53544137,1.968455493,-1.415422521,-0.567914674,0.003342358
8.123436367,0.866238426,0.000150499,-0.000403366,,,12.54142592,1.377386158,-5.818906324,-11.24918275,0.06114269
8.123436367,0.866238426,0.000150499,-0.000403366,,,12.54703075,0.249628561,-13.85829599,-31.81137972,0.137673193
8.123436367,0.866238426,0.000150499,-0.000403366,,,12.55602407,1.751524125,-3.047016348,-4.479431189,0.024550507
8.123436367,0.866238426,0.000150499,-0.000403366,,,12.59744259,0.938394384,-8.994445891,-19.2283657,0.086756423
8.123436367,0.866238426,0.000150499,-0.000403366,,,12.59844621,1.06469112,-8.086761636,-16.92907613,0.077605253
8.123436367,0.866238426,0.000150499,-0.000403366,,,12.61397501,0.751856651,-10.32392178,-22.62939226,0.094780375
8.123689204,0.649532037,0.000124412,-0.000325258,,,12.61656327,0.181821622,-14.32871379,-33.05185277,0.117987651
8.123942041,0.432825649,9.0677E-05,-0.000232121,,,12.61794064,1.250899196,-6.736398073,-13.54452792,0.060476697
8.123942041,0.432825649,9.0677E-05,-0.000232121,,,12.62379076,1.818424118,-2.539288773,-3.272068311,0.015333321
8.124471021,0.216412825,4.92745E-05,-0.000123863,,,12.64334165,0.969852385,-8.765890107,-18.65541129,0.074893336
8.125,0,0,0,,,12.64334165,1.0329414,-8.312425713,-17.50685983,0.070935228
8.125,0,0,0,,,12.65522781,0.155176226,-14.51341617,-33.53921165,0.106488444
8.125,0,0,0,,,12.65522781,0.026572525,-15.40752024,-35.89459407,0.108352652
8.141537067,1.939019387,0.000155998,-0.000568806,,,12.66160987,1.973427475,-1.366197163,-0.478385376,0.002059285
8.145500248,1.817058161,0.000167143,-0.000567453,,,12.66160987,1.844823774,-2.337770406,-2.795883088,0.01183068
8.145500248,1.817058161,0.000167143,-0.000567453,,,12.68360646,0.375698443,-12.97304202,-29.50246697,0.092384929
8.167466571,2,0.000147356,-0.000564595,,,12.69007163,1.625454243,-3.976438822,-6.757402918,0.025530633
8.171429753,1.878038774,0.000160151,-0.000565093,,,12.7015412,0.819341634,-9.839148105,-21.39822254,0.070066377
8.171429753,1.878038774,0.000160151,-0.000565093,,,12.70238663,1.182939132,-7.224825619,-14.77911656,0.05096375
8.189914255,1.642339038,0.000173271,-0.000553258,,,12.71688814,0.625383698,-11.21516316,-24.93801244,0.074478078
8.189914255,1.642339038,0.000173271,-0.000553258,,,12.72085377,1.376566008,-5.811665984,-11.26430906,0.037282873
8.191493756,0.758009936,0.000134476,-0.000362524,,,12.72839397,0.124643373,-14.72480327,-34.09733877,0.084151328
8.191493756,0.758009936,0.000134476,-0.000362524,,,12.73342166,1.875356627,-2.102928977,-2.245340568,0.007520138
8.191746593,0.541303547,0.000105414,-0.000278021,,,12.74020574,0.974444988,-8.727758539,-18.57180626,0.054289396
8.191771095,1.414700296,0.000176122,-0.000527535,,,12.74020574,0.845841288,-9.648417363,-20.91502247,0.059863782
8.192137501,0.324743941,6.89083E-05,-0.000178432,,,12.74020574,1.156193739,-7.416778904,-15.26523025,0.045787333
8.19266648,0.108331116,2.49003E-05,-6.35E-05,,,12.74020574,1.027590038,-8.345640209,-17.60431328,0.051878659
8.19266648,0.108331116,2.49003E-05,-6.35E-05,,,12.74542283,0.473853023,-12.28242753,-27.7069561,0.071671942
8.1927375,1.192240515,0.000169955,-0.000486791,,,12.75089277,1.527582027,-4.69834802,-8.528195574,0.025629036
8.192813473,0.974959696,0.000155975,-0.000432029,,,12.7525181,0.52708303,-11.90762832,-26.73389275,0.068130608
8.192813473,0.974959696,0.000155975,-0.000432029,,,12.75745517,1.474521935,-5.089679763,-9.489024578,0.027604086
8.197359257,1.939019387,0.000152587,-0.000561942,,,12.79322788,0.344896646,-13.18613229,-30.06521363,0.060830247
8.197359257,1.939019387,0.000152587,-0.000561942,,,12.79533823,0.876158208,-9.429790351,-20.36236151,0.046133671
8.205174598,1.817058161,0.00016272,-0.000560181,,,12.79533823,1.125444953,-7.637052772,-15.82425659,0.037229814
8.205174598,1.817058161,0.00016272,-0.000560181,,,12.79718514,1.655349094,-3.748218669,-6.216984197,0.01543995
8.223288762,2,0.000144846,-0.000558226,,,12.83189242,0.31825125,-13.37204001,-30.55249467,0.049817238
8.223288762,2,0.000144846,-0.000558226,,,12.83189242,0.026572525,-15.40620687,-35.89219493,0.052621077
8.231104103,1.878038774,0.000156162,-0.000558209,,,12.8346623,0.655745226,-10.99677271,-24.38329004,0.042744173
8.257033607,1.939019387,0.000149245,-0.000555505,,,12.83500425,1.973427475,-1.356228953,-0.478385984,0.001007232
8.259551144,0.649781445,0.000117315,-0.00031924,,,12.83500425,1.68174875,-3.550017296,-5.739870575,0.011634278
8.259551144,0.649781445,0.000117315,-0.00031924,,,12.83550772,1.345492772,-6.034245224,-11.82796572,0.022992338
8.259803981,0.433075057,8.54733E-05,-0.000228201,,,12.86496968,0.250713255,-13.84392801,-31.78825117,0.040712965
8.259803981,0.433075057,8.54733E-05,-0.000228201,,,12.86496968,0.124643373,-14.72345552,-34.09608921,0.041735709
8.25987112,0.866267275,0.000141834,-0.000395129,,,12.86746922,1.749286745,-3.044311379,-4.519922288,0.007421212
8.25987112,0.866267275,0.000141834,-0.000395129,,,12.86746922,1.875356627,-2.096961928,-2.245350314,0.003744477
8.260257766,1.528600528,0.000170381,-0.000535478,,,12.87332684,0.973923605,-8.727070494,-18.58131711,0.026461017
8.260257766,1.528600528,0.000170381,-0.000535478,,,12.87332684,0.68224488,-10.80821539,-23.89941991,0.032270682
8.260332961,0.216662233,4.64161E-05,-0.000122004,,,12.87332684,1.318747379,-6.228791691,-12.31320245,0.01837459
8.260332961,0.216662233,4.64161E-05,-0.000122004,,,12.87332684,1.027068655,-8.344845517,-17.61384418,0.025289124
8.260416667,0,0,0,,,12.89825136,0.875755137,-9.430102953,-20.36967589,0.022927212
8.262114606,1.300961785,0.000168606,-0.000502585,,,12.89825136,0.749685255,-10.32897433,-22.66861111,0.024923076
8.262114606,1.300961785,0.000168606,-0.000502585,,,12.89825136,1.251111765,-6.721767185,-13.54091335,0.016098108
8.262190578,1.083680967,0.000158932,-0.00045624,,,12.89825136,1.125041883,-7.63706384,-15.83162564,0.018511856
8.262190578,1.083680967,0.000158932,-0.00045624,,,12.91992773,0.468541999,-12.31654451,-27.80346269,0.022539462
8.264172292,1.747914714,0.000162794,-0.000551568,,,12.92156392,1.531749721,-4.661750353,-8.452825548,0.008006074
8.264172292,1.747914714,0.000162794,-0.000551568,,,12.92835059,0.531731867,-11.87151775,-26.64846737,0.019649287
8.282963112,2,0.000142312,-0.000552233,,,12.9293542,1.46876156,-5.12663715,-9.593448159,0.00812558
8.290778453,1.878038774,0.000152416,-0.000552168,,,12.96582678,0.436910986,-12.53865667,-28.38173598,0.009733081
8.290778453,1.878038774,0.000152416,-0.000552168,,,12.96582678,0.031544507,-15.37122519,-35.80042614,0.010678878
8.316707957,1.939019387,0.000146119,-0.000549863,,,12.96645936,1.563089014,-4.429251478,-7.885624831,0.003206714
8.327608533,0.541552955,9.91742E-05,-0.000273364,,,12.96645936,1.968455493,-1.390957207,-0.567916352,0.000243413
8.327608533,0.541552955,9.91742E-05,-0.000273364,,,12.9712131,0.155176226,-14.5102007,-33.53670354,0.008844899
8.327928508,0.758038785,0.000126484,-0.00035582,,,12.9712131,0.31825125,-13.37089278,-30.55209229,0.008519842
8.327999441,0.324993349,6.4785E-05,-0.000175715,,,12.97174597,1.68174875,-3.547189307,-5.739886905,0.001991653
8.327999441,0.324993349,6.4785E-05,-0.000175715,,,12.97174597,1.844823774,-2.325187917,-2.795909765,0.000990272
8.328083147,0.108331116,2.33587E-05,-6.25E-05,,,12.97424965,0.968556347,-8.764300645,-18.67905004,0.005401408
8.329248225,0.974988545,0.000146665,-0.000423428,,,12.97424965,0.563189869,-11.64936095,-26.07362992,0.006963311
8.330601278,1.414862018,0.000165162,-0.000515192,,,12.97424965,1.43701184,-5.359992732,-10.16870798,0.003128274
8.330601278,1.414862018,0.000165162,-0.000515192,,,12.97424965,1.031645361,-8.310525426,-17.53055839,0.005118953
8.331567683,1.192402237,0.000159525,-0.000476214,,,12.97830837,0.681833708,-10.81004453,-23.90686659,0.005527196
8.331567683,1.192402237,0.000159525,-0.000476214,,,12.97830837,0.844908732,-9.649710865,-20.93192927,0.004994726
8.334515803,1.634176203,0.000162314,-0.000538375,,,12.97830837,1.155261183,-7.417280511,-15.28227837,0.003824762
8.342637462,2,0.00013991,-0.000546968,,,12.97830837,1.318336207,-6.230274122,-12.32069596,0.003146246
8.349776147,1.808895326,0.000153368,-0.000545725,,,,,,,
8.376382307,1.939019387,0.000143165,-0.000544915,,,,,,,
8.376382307,1.939019387,0.000143165,-0.000544915,,,,,,,
8.395665921,0.433324465,8.02195E-05,-0.000224751,,,,,,,
8.395665921,0.433324465,8.02195E-05,-0.000224751,,,,,,,
8.395665921,0.433324465,8.02195E-05,-0.000224751,,,,,,,
8.395665921,0.433324465,8.02195E-05,-0.000224751,,,,,,,
8.395665921,0.433324465,8.02195E-05,-0.000224751,,,,,,,
8.395665921,0.433324465,8.02195E-05,-0.000224751,,,,,,,
8.395749627,0.216662233,4.34872E-05,-0.00012023,,,,,,,
8.395833333,0,0,0,,,,,,,
8.395985897,0.649810294,0.00011011,-0.000313894,,,,,,,
8.396305872,0.866296124,0.000133142,-0.000388042,,,,,,,
8.396305872,0.866296124,0.000133142,-0.000388042,,,,,,,
8.398625331,1.083709816,0.000149134,-0.00044751,,,,,,,
8.400944789,1.301123508,0.000157946,-0.000492215,,,,,,,
8.400944789,1.301123508,0.000157946,-0.000492215,,,,,,,
8.400944789,1.301123508,0.000157946,-0.000492215,,,,,,,
8.400944789,1.301123508,0.000157946,-0.000492215,,,,,,,
8.400944789,1.301123508,0.000157946,-0.000492215,,,,,,,
8.400944789,1.301123508,0.000157946,-0.000492215,,,,,,,
8.402311812,2,0.000137592,-0.000542342,,,,,,,
8.404859315,1.520437693,0.000159265,-0.000522509,,,,,,,
8.40877384,1.739751879,0.000153022,-0.000538628,,,,,,,
8.40877384,1.739751879,0.000153022,-0.000538628,,,,,,,
8.435380001,1.869875939,0.000144639,-0.000540332,,,,,,,
8.461986162,2,0.000135318,-0.000538277,,,,,,,
8.461986162,2,0.000135318,-0.000538277,,,,,,,
8.461986162,2,0.000135318,-0.000538277,,,,,,,
8.463416108,0.324993349,6.06209E-05,-0.000173219,,,,,,,
8.463416108,0.324993349,6.06209E-05,-0.000173219,,,,,,,
8.463499814,0.108331116,2.18134E-05,-6.17E-05,,,,,,,
8.464043285,0.541581804,9.28708E-05,-0.000269214,,,,,,,
8.464043285,0.541581804,9.28708E-05,-0.000269214,,,,,,,
8.464363261,0.758067634,0.00011851,-0.00035007,,,,,,,
8.465682978,0.975017394,0.000137423,-0.000416169,,,,,,,
8.468002436,1.192431086,0.000149437,-0.000467613,,,,,,,
8.468002436,1.192431086,0.000149437,-0.000467613,,,,,,,
8.475202826,1.406699183,0.000154065,-0.000503815,,,,,,,
8.475202826,1.406699183,0.000154065,-0.000503815,,,,,,,
8.479117352,1.626013368,0.00015202,-0.000526953,,,,,,,
8.494377695,1.800732491,0.000144864,-0.000535055,,,,,,,
8.520983856,1.930856552,0.000136927,-0.000535314,,,,,,,
8.520983856,1.930856552,0.000136927,-0.000535314,,,,,,,
8.5257785,2,0.000132932,-0.000534463,,,,,,,
8.531062209,0.433666208,7.50205E-05,-0.000221814,,,,,,,
8.531062209,0.433666208,7.50205E-05,-0.000221814,,,,,,,
8.531166294,0.216662233,4.05717E-05,-0.000118667,,,,,,,
8.531166294,0.216662233,4.05717E-05,-0.000118667,,,,,,,
8.53125,0,0,0,,,,,,,
8.532420649,0.649839143,0.000102959,-0.000309318,,,,,,,
8.532420649,0.649839143,0.000102959,-0.000309318,,,,,,,
8.532740625,0.866324973,0.000124553,-0.000382072,,,,,,,
8.532740625,0.866324973,0.000124553,-0.000382072,,,,,,,
8.535060083,1.083738665,0.000139525,-0.000440303,,,,,,,
8.535060083,1.083738665,0.000139525,-0.000440303,,,,,,,
8.538179701,1.299391266,0.000147705,-0.000483671,,,,,,,
8.538179701,1.299391266,0.000147705,-0.000483671,,,,,,,
8.549460863,1.512274858,0.000148735,-0.000512392,,,,,,,
8.549460863,1.512274858,0.000148735,-0.000512392,,,,,,,
8.553375389,1.731589044,0.000144023,-0.000528982,,,,,,,
8.553375389,1.731589044,0.000144023,-0.000528982,,,,,,,
8.579981549,1.861713104,0.000137441,-0.000531656,,,,,,,
8.579981549,1.861713104,0.000137441,-0.000531656,,,,,,,
8.584776194,1.930856552,0.000134075,-0.000531944,,,,,,,
8.589570839,2,0.000130576,-0.000531152,,,,,,,
8.598812395,0.325335092,5.65565E-05,-0.000171211,,,,,,,
8.59891648,0.108331116,2.02856E-05,-6.10E-05,,,,,,,
8.59891648,0.108331116,2.02856E-05,-6.10E-05,,,,,,,
8.599439573,0.541923547,8.67341E-05,-0.000265819,,,,,,,
8.600798013,0.758096483,0.000110666,-0.000345235,,,,,,,
8.600798013,0.758096483,0.000110666,-0.000345235,,,,,,,
8.60211773,0.975046243,0.000128386,-0.00041018,,,,,,,
8.60211773,0.975046243,0.000128386,-0.00041018,,,,,,,
8.605237348,1.190698845,0.000139546,-0.000460298,,,,,,,
8.612437738,1.404966942,0.000144089,-0.000496062,,,,,,,
8.6237189,1.617850533,0.00014242,-0.000518305,,,,,,,
8.6237189,1.617850533,0.00014242,-0.000518305,,,,,,,
8.638979243,1.792569656,0.000136982,-0.000527194,,,,,,,
8.638979243,1.792569656,0.000136982,-0.000527194,,,,,,,
8.643773888,1.861713104,0.000134249,-0.000528675,,,,,,,
8.648568532,1.930856552,0.000131293,-0.000529029,,,,,,,
8.653363177,2,0.000128238,-0.000528286,,,,,,,
8.666458497,0.434007951,6.99096E-05,-0.000219319,,,,,,,
8.666458497,0.434007951,6.99096E-05,-0.000219319,,,,,,,
8.666562582,0.217003976,3.77628E-05,-0.000117479,,,,,,,
8.666666667,0,0,0,,,,,,,
8.666666667,0,0,0,,,,,,,
8.666666667,0,0,0,,,,,,,
8.667816937,0.650180886,9.60411E-05,-0.000305615,,,,,,,
8.669175377,0.866353822,0.000116178,-0.00037715,,,,,,,
8.669175377,0.866353822,0.000116178,-0.00037715,,,,,,,
8.669175377,0.866353822,0.000116178,-0.00037715,,,,,,,
8.669175377,0.866353822,0.000116178,-0.00037715,,,,,,,
8.669175377,0.866353822,0.000116178,-0.00037715,,,,,,,
8.669175377,0.866353822,0.000116178,-0.00037715,,,,,,,
8.672294995,1.082006423,0.000130089,-0.000434056,,,,,,,
8.675414613,1.297659025,0.000137924,-0.000476924,,,,,,,
8.675414613,1.297659025,0.000137924,-0.000476924,,,,,,,
8.686695775,1.510542617,0.000139322,-0.000505612,,,,,,,
8.697976937,1.723426209,0.000135661,-0.000521843,,,,,,,
8.697976937,1.723426209,0.000135661,-0.000521843,,,,,,,
8.697976937,1.723426209,0.000135661,-0.000521843,,,,,,,
8.697976937,1.723426209,0.000135661,-0.000521843,,,,,,,
8.697976937,1.723426209,0.000135661,-0.000521843,,,,,,,
8.697976937,1.723426209,0.000135661,-0.000521843,,,,,,,
8.697976937,1.723426209,0.000135661,-0.000521843,,,,,,,
8.702771581,1.792569656,0.000133548,-0.000524557,,,,,,,
8.702771581,1.792569656,0.000133548,-0.000524557,,,,,,,
8.707566226,1.861713104,0.00013115,-0.000526105,,,,,,,
8.707566226,1.861713104,0.00013115,-0.000526105,,,,,,,
8.712360871,1.930856552,0.000128566,-0.000526516,,,,,,,
8.712360871,1.930856552,0.000128566,-0.000526516,,,,,,,
8.717155515,2,0.000125908,-0.000525814,,,,,,,
8.717155515,2,0.000125908,-0.000525814,,,,,,,
8.734208683,0.325676835,5.25818E-05,-0.00016951,,,,,,,
8.734312768,0.108672859,1.88524E-05,-6.05E-05,,,,,,,
8.734312768,0.108672859,1.88524E-05,-6.05E-05,,,,,,,
8.734835861,0.54226529,8.07452E-05,-0.000262979,,,,,,,
8.736194301,0.758438226,0.00010313,-0.000341379,,,,,,,
8.736194301,0.758438226,0.00010313,-0.000341379,,,,,,,
8.739352642,0.973314002,0.000119499,-0.000404862,,,,,,,
8.739352642,0.973314002,0.000119499,-0.000404862,,,,,,,
8.74247226,1.188966603,0.000130095,-0.000454488,,,,,,,
8.74967265,1.4032347,0.000134682,-0.000490105,,,,,,,
8.760953812,1.616118292,0.000133832,-0.000512583,,,,,,,
8.760953812,1.616118292,0.000133832,-0.000512583,,,,,,,
8.770966081,1.792569656,0.000129992,-0.000522151,,,,,,,
8.770966081,1.792569656,0.000129992,-0.000522151,,,,,,,
8.775760725,1.861713104,0.000127925,-0.000523762,,,,,,,
8.78055537,1.930856552,0.000125701,-0.000524226,,,,,,,
8.785350014,2,0.000123421,-0.000523561,,,,,,,
8.801854785,0.434349694,6.49444E-05,-0.000217235,,,,,,,
8.801854785,0.434349694,6.49444E-05,-0.000217235,,,,,,,
8.80195887,0.217345719,3.50298E-05,-0.000116479,,,,,,,
8.80195887,0.217345719,3.50298E-05,-0.000116479,,,,,,,
8.802083333,0,0,0,,,,,,,
8.803213225,0.65052263,8.93389E-05,-0.000302573,,,,,,,
8.803213225,0.65052263,8.93389E-05,-0.000302573,,,,,,,
8.80385672,0.866916458,0.00010825,-0.00037338,,,,,,,
8.80385672,0.866916458,0.00010825,-0.00037338,,,,,,,
8.809529907,1.080274182,0.000121073,-0.000429065,,,,,,,
8.809529907,1.080274182,0.000121073,-0.000429065,,,,,,,
8.812649526,1.295926783,0.000128673,-0.000471705,,,,,,,
8.812649526,1.295926783,0.000128673,-0.000471705,,,,,,,
8.823930687,1.508810375,0.000130518,-0.000500541,,,,,,,
8.823930687,1.508810375,0.000130518,-0.000500541,,,,,,,
8.835074317,1.720715157,0.000128101,-0.000517116,,,,,,,
8.835074317,1.720715157,0.000128101,-0.000517116,,,,,,,
8.843955225,1.861713104,0.000124776,-0.000521788,,,,,,,
8.843955225,1.861713104,0.000124776,-0.000521788,,,,,,,
8.848749869,1.930856552,0.000122876,-0.000522298,,,,,,,
8.853544514,2,0.000120935,-0.000521664,,,,,,,
8.869604971,0.326018578,4.87389E-05,-0.000168094,,,,,,,
8.869604971,0.326018578,4.87389E-05,-0.000168094,,,,,,,
8.869729435,0.108672859,1.74102E-05,-6.00E-05,,,,,,,
8.870232149,0.542607033,7.49646E-05,-0.000260647,,,,,,,
8.870232149,0.542607033,7.49646E-05,-0.000260647,,,,,,,
8.870875644,0.759000862,9.59372E-05,-0.000338362,,,,,,,
8.874033986,0.973876638,0.000111305,-0.000401245,,,,,,,
8.879707173,1.187234362,0.000121143,-0.000449964,,,,,,,
8.879707173,1.187234362,0.000121143,-0.000449964,,,,,,,
8.886907563,1.401502459,0.000125854,-0.000485623,,,,,,,
8.886907563,1.401502459,0.000125854,-0.000485623,,,,,,,
8.898051192,1.61340724,0.000125829,-0.000508344,,,,,,,
8.908063461,1.789858604,0.000123199,-0.000518311,,,,,,,
8.916944369,1.930856552,0.000120086,-0.000520691,,,,,,,
8.916944369,1.930856552,0.000120086,-0.000520691,,,,,,,
8.921739013,2,0.000118445,-0.000520085,,,,,,,
8.937251072,0.434691437,6.01714E-05,-0.000215525,,,,,,,
8.937251072,0.434691437,6.01714E-05,-0.000215525,,,,,,,
8.937251072,0.434691437,6.01714E-05,-0.000215525,,,,,,,
8.937251072,0.434691437,6.01714E-05,-0.000215525,,,,,,,
8.937251072,0.434691437,6.01714E-05,-0.000215525,,,,,,,
8.937251072,0.434691437,6.01714E-05,-0.000215525,,,,,,,
8.937375536,0.217345719,3.23525E-05,-0.000115483,,,,,,,
8.9375,0,0,0,,,,,,,
8.937894568,0.651085266,8.29654E-05,-0.000300214,,,,,,,
8.938538064,0.867479095,0.000100676,-0.00037042,,,,,,,
8.938538064,0.867479095,0.000100676,-0.00037042,,,,,,,
8.944211251,1.080836818,0.000112791,-0.000425729,,,,,,,
8.949884438,1.294194542,0.000119973,-0.00046775,,,,,,,
8.949884438,1.294194542,0.000119973,-0.00046775,,,,,,,
8.949884438,1.294194542,0.000119973,-0.00046775,,,,,,,
8.949884438,1.294194542,0.000119973,-0.00046775,,,,,,,
8.949884438,1.294194542,0.000119973,-0.00046775,,,,,,,
8.949884438,1.294194542,0.000119973,-0.00046775,,,,,,,
8.961028068,1.506099323,0.000122289,-0.000496733,,,,,,,
8.972171697,1.718004105,0.000120977,-0.00051375,,,,,,,
8.972171697,1.718004105,0.000120977,-0.00051375,,,,,,,
8.981052605,1.859002052,0.000118683,-0.000518718,,,,,,,
8.989933512,2,0.00011595,-0.000518784,,,,,,,
8.989933512,2,0.00011595,-0.000518784,,,,,,,
8.989933512,2,0.00011595,-0.000518784,,,,,,,
9.004913492,0.54316967,6.94905E-05,-0.000258865,,,,,,,
9.004913492,0.54316967,6.94905E-05,-0.000258865,,,,,,,
9.005021638,0.326018578,4.50188E-05,-0.000166777,,,,,,,
9.005021638,0.326018578,4.50188E-05,-0.000166777,,,,,,,
9.005146101,0.108672859,1.6034E-05,-5.95E-05,,,,,,,
9.005556988,0.759563499,8.9079E-05,-0.000335996,,,,,,,
9.008715329,0.974439275,0.000103531,-0.000398479,,,,,,,
9.014388516,1.187796998,0.000112944,-0.000447009,,,,,,,
9.014388516,1.187796998,0.000112944,-0.000447009,,,,,,,
9.024004943,1.398791406,0.000117577,-0.000482195,,,,,,,
9.024004943,1.398791406,0.000117577,-0.000482195,,,,,,,
9.035148573,1.610696188,0.000118314,-0.000505318,,,,,,,
9.045160841,1.787147552,0.000116714,-0.000515654,,,,,,,
9.054041749,1.9281455,0.000114597,-0.00051828,,,,,,,
9.054041749,1.9281455,0.000114597,-0.00051828,,,,,,,
9.062833956,2,0.000113277,-0.000517667,,,,,,,
9.071921541,0.436023836,5.57577E-05,-0.000214574,,,,,,,
9.071921541,0.436023836,5.57577E-05,-0.000214574,,,,,,,
9.072575911,0.651647902,7.69022E-05,-0.000298368,,,,,,,
9.072575911,0.651647902,7.69022E-05,-0.000298368,,,,,,,
9.072792203,0.217345719,2.98073E-05,-0.000114645,,,,,,,
9.072792203,0.217345719,2.98073E-05,-0.000114645,,,,,,,
9.072916667,0,0,0,,,,,,,
9.073219407,0.868041731,9.34962E-05,-0.000368158,,,,,,,
9.073219407,0.868041731,9.34962E-05,-0.000368158,,,,,,,
9.078892594,1.081399455,0.000104979,-0.000423253,,,,,,,
9.078892594,1.081399455,0.000104979,-0.000423253,,,,,,,
9.081652596,1.293907017,0.000112163,-0.000465149,,,,,,,
9.081652596,1.293907017,0.000112163,-0.000465149,,,,,,,
9.098125448,1.503388271,0.000114574,-0.000493996,,,,,,,
9.098125448,1.503388271,0.000114574,-0.000493996,,,,,,,
9.109269078,1.715293052,0.000114218,-0.000511441,,,,,,,
9.109269078,1.715293052,0.000114218,-0.000511441,,,,,,,
9.118149985,1.856291,0.00011277,-0.000516673,,,,,,,
9.118149985,1.856291,0.00011277,-0.000516673,,,,,,,
9.126942192,1.9281455,0.000111688,-0.000517377,,,,,,,
9.135734399,2,0.000110599,-0.000516797,,,,,,,
9.13958396,0.544502068,6.4371E-05,-0.000257772,,,,,,,
9.139692106,0.327350976,4.16654E-05,-0.000166304,,,,,,,
9.140238331,0.760126135,8.25878E-05,-0.00033419,,,,,,,
9.140238331,0.760126135,8.25878E-05,-0.00033419,,,,,,,
9.140562768,0.108672859,1.47331E-05,-5.91E-05,,,,,,,
9.140562768,0.108672859,1.47331E-05,-5.91E-05,,,,,,,
9.143396672,0.975001911,9.62001E-05,-0.000396428,,,,,,,
9.143396672,0.975001911,9.62001E-05,-0.000396428,,,,,,,
9.146156674,1.187509474,0.000105379,-0.000444766,,,,,,,
9.155773101,1.398503882,0.000110153,-0.000480109,,,,,,,
9.172245953,1.607985136,0.000111227,-0.000503235,,,,,,,
9.172245953,1.607985136,0.000111227,-0.000503235,,,,,,,
9.182258222,1.7844365,0.000110487,-0.000513911,,,,,,,
9.182258222,1.7844365,0.000110487,-0.000513911,,,,,,,
9.191050429,1.856291,0.00010968,-0.000515951,,,,,,,
9.199842635,1.9281455,0.000108803,-0.000516695,,,,,,,
9.206592009,0.437356234,5.15766E-05,-0.000213905,,,,,,,
9.206592009,0.437356234,5.15766E-05,-0.000213905,,,,,,,
9.20724638,0.652980301,7.12393E-05,-0.000297233,,,,,,,
9.207462671,0.218678117,2.75785E-05,-0.000114604,,,,,,,
9.20790075,0.868604368,8.67314E-05,-0.000366482,,,,,,,
9.20790075,0.868604368,8.67314E-05,-0.000366482,,,,,,,
9.20790075,0.868604368,8.67314E-05,-0.000366482,,,,,,,
9.20790075,0.868604368,8.67314E-05,-0.000366482,,,,,,,
9.20790075,0.868604368,8.67314E-05,-0.000366482,,,,,,,
9.20790075,0.868604368,8.67314E-05,-0.000366482,,,,,,,
9.208333333,0,0,0,,,,,,,
9.208333333,0,0,0,,,,,,,
9.208333333,0,0,0,,,,,,,
9.208634842,2,0.000107918,-0.000516144,,,,,,,
9.210660752,1.08111193,9.77607E-05,-0.000421325,,,,,,,
9.213420754,1.293619493,0.000104834,-0.000463308,,,,,,,
9.213420754,1.293619493,0.000104834,-0.000463308,,,,,,,
9.229893606,1.503100746,0.00010762,-0.000492415,,,,,,,
9.246366458,1.712582,0.000107771,-0.000509947,,,,,,,
9.246366458,1.712582,0.000107771,-0.000509947,,,,,,,
9.246366458,1.712582,0.000107771,-0.000509947,,,,,,,
9.246366458,1.712582,0.000107771,-0.000509947,,,,,,,
9.246366458,1.712582,0.000107771,-0.000509947,,,,,,,
9.246366458,1.712582,0.000107771,-0.000509947,,,,,,,
9.246366458,1.712582,0.000107771,-0.000509947,,,,,,,
9.255158665,1.7844365,0.000107264,-0.000513339,,,,,,,
9.255158665,1.7844365,0.000107264,-0.000513339,,,,,,,
9.263950872,1.856291,0.000106637,-0.000515424,,,,,,,
9.263950872,1.856291,0.000106637,-0.000515424,,,,,,,
9.272743079,1.9281455,0.000105942,-0.000516204,,,,,,,
9.272743079,1.9281455,0.000105942,-0.000516204,,,,,,,
9.274254428,0.545834467,5.95423E-05,-0.000257011,,,,,,,
9.274362574,0.328683375,3.84978E-05,-0.000166022,,,,,,,
9.274908799,0.761458533,7.65351E-05,-0.000333101,,,,,,,
9.274908799,0.761458533,7.65351E-05,-0.000333101,,,,,,,
9.27516483,0.974714387,8.94198E-05,-0.000394775,,,,,,,
9.27516483,0.974714387,8.94198E-05,-0.000394775,,,,,,,
9.275233236,0.110005258,1.36812E-05,-5.94E-05,,,,,,,
9.275233236,0.110005258,1.36812E-05,-5.94E-05,,,,,,,
9.277924832,1.187221949,9.82817E-05,-0.000443172,,,,,,,
9.281535286,2,0.000105234,-0.000515678,,,,,,,
9.281535286,2,0.000105234,-0.000515678,,,,,,,
9.287541259,1.398216357,0.000103182,-0.000478712,,,,,,,
9.304014111,1.607697611,0.000104787,-0.000502118,,,,,,,
9.304014111,1.607697611,0.000104787,-0.000502118,,,,,,,
9.333089798,1.7844365,0.000103891,-0.000512918,,,,,,,
9.333089798,1.7844365,0.000103891,-0.000512918,,,,,,,
9.340473583,0.872277422,8.06662E-05,-0.000366203,,,,,,,
9.340473583,0.872277422,8.06662E-05,-0.000366203,,,,,,,
9.341262477,0.438688632,4.76431E-05,-0.000213479,,,,,,,
9.341262477,0.438688632,4.76431E-05,-0.000213479,,,,,,,
9.341882005,1.856291,0.000103434,-0.000515046,,,,,,,
9.341916848,0.654312699,6.59175E-05,-0.000296465,,,,,,,
9.341916848,0.654312699,6.59175E-05,-0.000296465,,,,,,,
9.342133139,0.220010515,2.54769E-05,-0.000114676,,,,,,,
9.342133139,0.220010515,2.54769E-05,-0.000114676,,,,,,,
9.34242891,1.080824405,9.09922E-05,-0.000419945,,,,,,,
9.34242891,1.080824405,9.09922E-05,-0.000419945,,,,,,,
9.34375,0,0,0,,,,,,,
9.345188912,1.293331968,9.79605E-05,-0.000462069,,,,,,,
9.345188912,1.293331968,9.79605E-05,-0.000462069,,,,,,,
9.350674212,1.9281455,0.000102909,-0.000515861,,,,,,,
9.359466419,2,0.000102365,-0.00051536,,,,,,,
9.361661764,1.502813222,0.000101068,-0.000491438,,,,,,,
9.361661764,1.502813222,0.000101068,-0.000491438,,,,,,,
9.368528378,1.703790175,0.000102242,-0.000508766,,,,,,,
9.368528378,1.703790175,0.000102242,-0.000508766,,,,,,,
9.407481632,0.765131588,7.11036E-05,-0.00033316,,,,,,,
9.407737663,0.978387441,8.32233E-05,-0.000394595,,,,,,,
9.408924896,0.547166865,5.50142E-05,-0.00025653,,,,,,,
9.408924896,0.547166865,5.50142E-05,-0.00025653,,,,,,,
9.409033042,0.330015773,3.55253E-05,-0.000165904,,,,,,,
9.409033042,0.330015773,3.55253E-05,-0.000165904,,,,,,,
9.40969299,1.186934424,9.16305E-05,-0.000442093,,,,,,,
9.40969299,1.186934424,9.16305E-05,-0.000442093,,,,,,,
9.410649903,0.110005258,1.25319E-05,-5.91E-05,,,,,,,
9.419309417,1.397928833,9.66306E-05,-0.00047785,,,,,,,
9.419309417,1.397928833,9.66306E-05,-0.00047785,,,,,,,
9.419813139,1.856291,0.00010028,-0.000514833,,,,,,,
9.419813139,1.856291,0.00010028,-0.000514833,,,,,,,
9.426176031,1.598905785,9.90401E-05,-0.000500811,,,,,,,
9.428605346,1.9281455,9.99029E-05,-0.000515679,,,,,,,
9.437397553,2,9.94993E-05,-0.000515202,,,,,,,
9.455251718,1.775644675,9.87223E-05,-0.000512227,,,,,,,
9.473046416,0.875950477,7.49823E-05,-0.0003663,,,,,,,
9.473046416,0.875950477,7.49823E-05,-0.0003663,,,,,,,
9.474489681,0.657985754,6.11828E-05,-0.000296834,,,,,,,
9.475001743,1.08449746,8.47773E-05,-0.000419899,,,,,,,
9.475932945,0.440021031,4.39632E-05,-0.000213258,,,,,,,
9.475932945,0.440021031,4.39632E-05,-0.000213258,,,,,,,
9.475932945,0.440021031,4.39632E-05,-0.000213258,,,,,,,
9.475932945,0.440021031,4.39632E-05,-0.000213258,,,,,,,
9.475932945,0.440021031,4.39632E-05,-0.000213258,,,,,,,
9.475932945,0.440021031,4.39632E-05,-0.000213258,,,,,,,
9.47695707,1.293044443,9.15123E-05,-0.0004613,,,,,,,
9.47695707,1.293044443,9.15123E-05,-0.0004613,,,,,,,
9.47695707,1.293044443,9.15123E-05,-0.0004613,,,,,,,
9.47695707,1.293044443,9.15123E-05,-0.0004613,,,,,,,
9.47695707,1.293044443,9.15123E-05,-0.0004613,,,,,,,
9.47695707,1.293044443,9.15123E-05,-0.0004613,,,,,,,
9.477549806,0.220010515,2.33634E-05,-0.0001142,,,,,,,
9.479166667,0,0,0,,,,,,,
9.483823684,1.494021396,9.5198E-05,-0.000489973,,,,,,,
9.490690298,1.694998349,9.688E-05,-0.000507942,,,,,,,
9.490690298,1.694998349,9.688E-05,-0.000507942,,,,,,,
9.506536479,1.9281455,9.69236E-05,-0.000515635,,,,,,,
9.506536479,1.9281455,9.69236E-05,-0.000515635,,,,,,,
9.515328686,2,9.66405E-05,-0.000515179,,,,,,,
9.540054465,0.768804642,6.60179E-05,-0.000333521,,,,,,,
9.540310496,0.982060496,7.74265E-05,-0.000394781,,,,,,,
9.541471337,1.389137007,9.07288E-05,-0.0004762,,,,,,,
9.541471337,1.389137007,9.07288E-05,-0.0004762,,,,,,,
9.541497729,0.550839919,5.10307E-05,-0.000257186,,,,,,,
9.541497729,0.550839919,5.10307E-05,-0.000257186,,,,,,,
9.541975059,1.847499174,9.54077E-05,-0.000514572,,,,,,,
9.542265823,1.190607479,8.5492E-05,-0.000442201,,,,,,,
9.542265823,1.190607479,8.5492E-05,-0.000442201,,,,,,,
9.544449709,0.330015773,3.26157E-05,-0.000165325,,,,,,,
9.544449709,0.330015773,3.26157E-05,-0.000165325,,,,,,,
9.54606657,0.110005258,1.14677E-05,-5.89E-05,,,,,,,
9.548337951,1.59011396,9.35149E-05,-0.000499817,,,,,,,
9.577413638,1.766852849,9.36706E-05,-0.000511827,,,,,,,
9.59325982,2,9.37917E-05,-0.000515269,,,,,,,
9.59325982,2,9.37917E-05,-0.000515269,,,,,,,
9.59325982,2,9.37917E-05,-0.000515269,,,,,,,
9.603814077,1.300334566,8.58726E-05,-0.000462186,,,,,,,
9.603814077,1.300334566,8.58726E-05,-0.000462186,,,,,,,
9.605619249,0.879623531,6.96689E-05,-0.000366699,,,,,,,
9.605619249,0.879623531,6.96689E-05,-0.000366699,,,,,,,
9.605985604,1.48522957,8.95914E-05,-0.00048878,,,,,,,
9.605985604,1.48522957,8.95914E-05,-0.00048878,,,,,,,
9.607062514,0.661658808,5.67536E-05,-0.000297439,,,,,,,
9.607062514,0.661658808,5.67536E-05,-0.000297439,,,,,,,
9.607574576,1.088170514,7.89655E-05,-0.000420199,,,,,,,
9.607574576,1.088170514,7.89655E-05,-0.000420199,,,,,,,
9.610414367,0.443382046,4.07026E-05,-0.000214048,,,,,,,
9.610414367,0.443382046,4.07026E-05,-0.000214048,,,,,,,
9.612852218,1.686206523,9.16821E-05,-0.000507384,,,,,,,
9.612852218,1.686206523,9.16821E-05,-0.000507384,,,,,,,
9.612966473,0.220010515,2.14071E-05,-0.000113813,,,,,,,
9.612966473,0.220010515,2.14071E-05,-0.000113813,,,,,,,
9.614583333,0,0,0,,,,,,,
9.628698399,1.919353674,9.22841E-05,-0.000515752,,,,,,,
9.628698399,1.919353674,9.22841E-05,-0.000515752,,,,,,,
9.664136979,1.838707349,9.06119E-05,-0.000514546,,,,,,,
9.664136979,1.838707349,9.06119E-05,-0.000514546,,,,,,,
9.668328344,1.396427129,8.52559E-05,-0.000477124,,,,,,,
9.669122831,1.197897601,8.01044E-05,-0.000443346,,,,,,,
9.670499871,1.581322134,8.82023E-05,-0.000499052,,,,,,,
9.670499871,1.581322134,8.82023E-05,-0.000499052,,,,,,,
9.672627298,0.772477697,6.12679E-05,-0.000334122,,,,,,,
9.672627298,0.772477697,6.12679E-05,-0.000334122,,,,,,,
9.672883329,0.98573355,7.20106E-05,-0.000395254,,,,,,,
9.672883329,0.98573355,7.20106E-05,-0.000395254,,,,,,,
9.675979151,0.554200935,4.72302E-05,-0.000257895,,,,,,,
9.676568799,2,9.07617E-05,-0.000515472,,,,,,,
9.678931131,0.333376788,3.02191E-05,-0.000166375,,,,,,,
9.681483236,0.110005258,1.04868E-05,-5.87E-05,,,,,,,
9.681483236,0.110005258,1.04868E-05,-5.87E-05,,,,,,,
9.699575558,1.758061023,8.87412E-05,-0.000511638,,,,,,,
9.699575558,1.758061023,8.87412E-05,-0.000511638,,,,,,,
9.712007379,1.919353674,8.9171E-05,-0.000515983,,,,,,,
9.730671085,1.307624688,8.05689E-05,-0.000463324,,,,,,,
9.730671085,1.307624688,8.05689E-05,-0.000463324,,,,,,,
9.732842611,1.492519693,8.4312E-05,-0.000489723,,,,,,,
9.734431584,1.095460637,7.38972E-05,-0.000421589,,,,,,,
9.735014138,1.677414697,8.66463E-05,-0.000507018,,,,,,,
9.735014138,1.677414697,8.66463E-05,-0.000507018,,,,,,,
9.735014138,1.677414697,8.66463E-05,-0.000507018,,,,,,,
9.735014138,1.677414697,8.66463E-05,-0.000507018,,,,,,,
9.735014138,1.677414697,8.66463E-05,-0.000507018,,,,,,,
9.735014138,1.677414697,8.66463E-05,-0.000507018,,,,,,,
9.738192083,0.883296586,6.47094E-05,-0.000367334,,,,,,,
9.738192083,0.883296586,6.47094E-05,-0.000367334,,,,,,,
9.738192083,0.883296586,6.47094E-05,-0.000367334,,,,,,,
9.738192083,0.883296586,6.47094E-05,-0.000367334,,,,,,,
9.738192083,0.883296586,6.47094E-05,-0.000367334,,,,,,,
9.738192083,0.883296586,6.47094E-05,-0.000367334,,,,,,,
9.741543936,0.665019823,5.2541E-05,-0.000298118,,,,,,,
9.744895789,0.446743061,3.76624E-05,-0.000214972,,,,,,,
9.744895789,0.446743061,3.76624E-05,-0.000214972,,,,,,,
9.747445958,1.838707349,8.74279E-05,-0.000514792,,,,,,,
9.747447894,0.22337153,1.98994E-05,-0.000115121,,,,,,,
9.75,0,0,0,,,,,,,
9.75,0,0,0,,,,,,,
9.75,0,0,0,,,,,,,
9.759877779,2,8.77514E-05,-0.000515763,,,,,,,
9.782884538,1.758061023,8.55017E-05,-0.000511891,,,,,,,
9.782884538,1.758061023,8.55017E-05,-0.000511891,,,,,,,
9.795185351,1.403717252,8.00927E-05,-0.000478265,,,,,,,
9.795316359,1.919353674,8.60966E-05,-0.000516293,,,,,,,
9.795979838,1.205187724,7.50433E-05,-0.000444705,,,,,,,
9.797356878,1.588612256,8.31265E-05,-0.000499992,,,,,,,
9.797356878,1.588612256,8.31265E-05,-0.000499992,,,,,,,
9.799740337,0.993023672,6.73207E-05,-0.00039688,,,,,,,
9.799740337,0.993023672,6.73207E-05,-0.00039688,,,,,,,
9.80710872,0.775838712,5.67576E-05,-0.000334811,,,,,,,
9.80710872,0.775838712,5.67576E-05,-0.000334811,,,,,,,
9.810460573,0.55756195,4.36929E-05,-0.000258752,,,,,,,
9.813412553,0.336737803,2.7984E-05,-0.000167515,,,,,,,
9.815964658,0.113366273,9.87831E-06,-6.03E-05,,,,,,,
9.815964658,0.113366273,9.87831E-06,-6.03E-05,,,,,,,
9.830754938,1.838707349,8.42995E-05,-0.000515112,,,,,,,
9.830754938,1.838707349,8.42995E-05,-0.000515112,,,,,,,
9.843186759,2,8.47648E-05,-0.000516125,,,,,,,
9.846911334,1.692222682,8.24234E-05,-0.000508372,,,,,,,
9.846911334,1.692222682,8.24234E-05,-0.000508372,,,,,,,
9.857528092,1.31491481,7.55734E-05,-0.000464649,,,,,,,
9.857528092,1.31491481,7.55734E-05,-0.000464649,,,,,,,
9.859699618,1.499809815,7.93089E-05,-0.000490849,,,,,,,
9.859699618,1.499809815,7.93089E-05,-0.000490849,,,,,,,
9.861288591,1.102750759,6.91398E-05,-0.000423159,,,,,,,
9.861288591,1.102750759,6.91398E-05,-0.000423159,,,,,,,
9.87116913,0.893083356,6.03489E-05,-0.000369889,,,,,,,
9.87116913,0.893083356,6.03489E-05,-0.000369889,,,,,,,
9.876025358,0.668380838,4.86224E-05,-0.00029895,,,,,,,
9.876025358,0.668380838,4.86224E-05,-0.00029895,,,,,,,
9.878625339,1.919353674,8.30626E-05,-0.000516667,,,,,,,
9.878625339,1.919353674,8.30626E-05,-0.000516667,,,,,,,
9.879377211,0.450104076,3.48346E-05,-0.000216005,,,,,,,
9.879377211,0.450104076,3.48346E-05,-0.000216005,,,,,,,
9.881929316,0.226732546,1.84881E-05,-0.00011648,,,,,,,
9.881929316,0.226732546,1.84881E-05,-0.00011648,,,,,,,
9.885416667,0,0,0,,,,,,,
9.894781735,1.772869008,8.13952E-05,-0.000513023,,,,,,,
9.909254075,1.603420241,7.89634E-05,-0.000501705,,,,,,,
9.922042359,1.411007374,7.52117E-05,-0.000479562,,,,,,,
9.922042359,1.411007374,7.52117E-05,-0.000479562,,,,,,,
9.922836845,1.212477846,7.0283E-05,-0.000446222,,,,,,,
9.922836845,1.212477846,7.0283E-05,-0.000446222,,,,,,,
9.926495739,2,8.18056E-05,-0.000516543,,,,,,,
9.926495739,2,8.18056E-05,-0.000516543,,,,,,,
9.926495739,2,8.18056E-05,-0.000516543,,,,,,,
9.932717384,1.002810443,6.27997E-05,-0.000399286,,,,,,,
9.940085767,0.785625483,5.29279E-05,-0.00033768,,,,,,,
9.942652135,1.853515334,8.02989E-05,-0.000516006,,,,,,,
9.944941995,0.560922965,4.04055E-05,-0.000259727,,,,,,,
9.944941995,0.560922965,4.04055E-05,-0.000259727,,,,,,,
9.947893975,0.340098819,2.59043E-05,-0.000168729,,,,,,,
9.947893975,0.340098819,2.59043E-05,-0.000168729,,,,,,,
9.951381325,0.113366273,9.02771E-06,-6.01E-05,,,,,,,
9.958808531,1.707030667,7.83653E-05,-0.000509784,,,,,,,
9.958808531,1.707030667,7.83653E-05,-0.000509784,,,,,,,
9.971596815,1.5146178,7.52467E-05,-0.000492909,,,,,,,
9.984385099,1.322204933,7.08594E-05,-0.000466107,,,,,,,
9.984385099,1.322204933,7.08594E-05,-0.000466107,,,,,,,
9.984385099,1.322204933,7.08594E-05,-0.000466107,,,,,,,
9.984385099,1.322204933,7.08594E-05,-0.000466107,,,,,,,
9.984385099,1.322204933,7.08594E-05,-0.000466107,,,,,,,
9.984385099,1.322204933,7.08594E-05,-0.000466107,,,,,,,
9.990522535,1.934161659,7.91523E-05,-0.000517309,,,,,,,
9.990522535,1.934161659,7.91523E-05,-0.000517309,,,,,,,
9.994265638,1.11253753,6.45323E-05,-0.000425425,,,,,,,
10.00414618,0.902870127,5.62661E-05,-0.000372568,,,,,,,
10.00414618,0.902870127,5.62661E-05,-0.000372568,,,,,,,
10.00667893,1.787676993,7.74286E-05,-0.000514195,,,,,,,
10.0090024,0.678167609,4.53631E-05,-0.000302131,,,,,,,
10.01385863,0.453465091,3.22082E-05,-0.000217124,,,,,,,
10.01385863,0.453465091,3.22082E-05,-0.000217124,,,,,,,
10.01385863,0.453465091,3.22082E-05,-0.000217124,,,,,,,
10.01385863,0.453465091,3.22082E-05,-0.000217124,,,,,,,
10.01385863,0.453465091,3.22082E-05,-0.000217124,,,,,,,
10.01385863,0.453465091,3.22082E-05,-0.000217124,,,,,,,
10.01555368,2,7.86766E-05,-0.000517038,,,,,,,
10.01734598,0.226732546,1.69202E-05,-0.000116274,,,,,,,
10.02083333,0,0,0,,,,,,,
10.02115127,1.618228226,7.49738E-05,-0.000503461,,,,,,,
10.03393956,1.425815359,7.12884E-05,-0.00048196,,,,,,,
10.03393956,1.425815359,7.12884E-05,-0.00048196,,,,,,,
10.05454933,1.868323319,7.64135E-05,-0.000516924,,,,,,,
10.05454933,1.868323319,7.64135E-05,-0.000516924,,,,,,,
10.05581389,1.222264617,6.56485E-05,-0.000448346,,,,,,,
10.05581389,1.222264617,6.56485E-05,-0.000448346,,,,,,,
10.06569443,1.012597214,5.85634E-05,-0.000401803,,,,,,,
10.07070573,1.721838652,7.44552E-05,-0.000511221,,,,,,,
10.07070573,1.721838652,7.44552E-05,-0.000511221,,,,,,,
10.07306281,0.795412254,4.934E-05,-0.000340642,,,,,,,
10.07791904,0.570709736,3.77468E-05,-0.000263223,,,,,,,
10.07791904,0.570709736,3.77468E-05,-0.000263223,,,,,,,
10.07958047,1.934161659,7.60251E-05,-0.000517816,,,,,,,
10.08331064,0.340098819,2.37402E-05,-0.000168507,,,,,,,
10.08331064,0.340098819,2.37402E-05,-0.000168507,,,,,,,
10.08349401,1.529425785,7.13614E-05,-0.000494999,,,,,,,
10.08349401,1.529425785,7.13614E-05,-0.000494999,,,,,,,
10.08679799,0.113366273,8.24904E-06,-6.00E-05,,,,,,,
10.10461162,2,7.55869E-05,-0.000517567,,,,,,,
10.11415358,1.346733623,6.6695E-05,-0.000470456,,,,,,,
10.11415358,1.346733623,6.6695E-05,-0.000470456,,,,,,,
10.11857613,1.802484978,7.35881E-05,-0.000515377,,,,,,,
10.11857613,1.802484978,7.35881E-05,-0.000515377,,,,,,,
10.12724269,1.122324301,6.02066E-05,-0.000427783,,,,,,,
10.12724269,1.122324301,6.02066E-05,-0.000427783,,,,,,,
10.13304847,1.633036211,7.11406E-05,-0.000505232,,,,,,,
10.13304847,1.633036211,7.11406E-05,-0.000505232,,,,,,,
10.13712322,0.912656898,5.24401E-05,-0.000375333,,,,,,,
10.13712322,0.912656898,5.24401E-05,-0.000375333,,,,,,,
10.14197945,0.68795438,4.23056E-05,-0.000305381,,,,,,,
10.14197945,0.68795438,4.23056E-05,-0.000305381,,,,,,,
10.14360727,1.868323319,7.33001E-05,-0.000517433,,,,,,,
10.1497149,0.458870355,2.98622E-05,-0.000219147,,,,,,,
10.1497149,0.458870355,2.98622E-05,-0.000219147,,,,,,,
10.15276265,0.226732546,1.54817E-05,-0.00011611,,,,,,,
10.15276265,0.226732546,1.54817E-05,-0.00011611,,,,,,,
10.15625,0,0,0,,,,,,,
10.16370804,1.450344049,6.7098E-05,-0.000485741,,,,,,,
10.16863841,1.934161659,7.29483E-05,-0.000518348,,,,,,,
10.18260292,1.736646637,7.06786E-05,-0.000512658,,,,,,,
10.18260292,1.736646637,7.06786E-05,-0.000512658,,,,,,,
10.18260292,1.736646637,7.06786E-05,-0.000512658,,,,,,,
10.18260292,1.736646637,7.06786E-05,-0.000512658,,,,,,,
10.18260292,1.736646637,7.06786E-05,-0.000512658,,,,,,,
10.18260292,1.736646637,7.06786E-05,-0.000512658,,,,,,,
10.18558238,1.246793307,6.17799E-05,-0.000453327,,,,,,,
10.19366956,2,7.25397E-05,-0.00051812,,,,,,,
10.19867148,1.022383985,5.4588E-05,-0.000404393,,,,,,,
10.19867148,1.022383985,5.4588E-05,-0.000404393,,,,,,,
10.20603986,0.805199024,4.59759E-05,-0.000343671,,,,,,,
10.20603986,0.805199024,4.59759E-05,-0.000343671,,,,,,,
10.20763407,1.802484978,7.05007E-05,-0.000515879,,,,,,,
10.20763407,1.802484978,7.05007E-05,-0.000515879,,,,,,,
10.2132625,1.553954475,6.71718E-05,-0.000498203,,,,,,,
10.21377531,0.576115,3.49574E-05,-0.000265122,,,,,,,
10.2191669,0.345504082,2.20645E-05,-0.000170735,,,,,,,
10.22221466,0.113366273,7.53659E-06,-5.99E-05,,,,,,,
10.22221466,0.113366273,7.53659E-06,-5.99E-05,,,,,,,
10.23266521,1.868323319,7.02465E-05,-0.000517959,,,,,,,
10.23266521,1.868323319,7.02465E-05,-0.000517959,,,,,,,
10.24392207,1.371262313,6.27384E-05,-0.000474742,,,,,,,
10.24392207,1.371262313,6.27384E-05,-0.000474742,,,,,,,
10.25701117,1.146852991,5.66712E-05,-0.000433394,,,,,,,
10.25769635,1.934161659,6.99237E-05,-0.000518896,,,,,,,
10.25769635,1.934161659,6.99237E-05,-0.000518896,,,,,,,
10.26281695,1.657564901,6.69681E-05,-0.000507845,,,,,,,
10.26281695,1.657564901,6.69681E-05,-0.000507845,,,,,,,
10.27010027,0.922443669,4.88495E-05,-0.000378155,,,,,,,
10.27010027,0.922443669,4.88495E-05,-0.000378155,,,,,,,
10.27010027,0.922443669,4.88495E-05,-0.000378155,,,,,,,
10.27010027,0.922443669,4.88495E-05,-0.000378155,,,,,,,
10.27010027,0.922443669,4.88495E-05,-0.000378155,,,,,,,
10.27010027,0.922443669,4.88495E-05,-0.000378155,,,,,,,
10.27783572,0.693359644,3.9166E-05,-0.000307182,,,,,,,
10.2827275,2,6.95383E-05,-0.000518687,,,,,,,
10.2827275,2,6.95383E-05,-0.000518687,,,,,,,
10.28557116,0.464275619,2.76752E-05,-0.000221218,,,,,,,
10.28557116,0.464275619,2.76752E-05,-0.000221218,,,,,,,
10.28861891,0.23213781,1.44815E-05,-0.000118557,,,,,,,
10.29166667,0,0,0,,,,,,,
10.29166667,0,0,0,,,,,,,
10.29166667,0,0,0,,,,,,,
10.29347653,1.474872739,6.3105E-05,-0.000489442,,,,,,,
10.30283769,1.802484978,6.72749E-05,-0.000516428,,,,,,,
10.30283769,1.802484978,6.72749E-05,-0.000516428,,,,,,,
10.31535086,1.271321997,5.80996E-05,-0.000458231,,,,,,,
10.32786883,1.868323319,6.70487E-05,-0.000518532,,,,,,,
10.32843996,1.046912675,5.1417E-05,-0.000410637,,,,,,,
10.32843996,1.046912675,5.1417E-05,-0.000410637,,,,,,,
10.34189612,0.810604288,4.25676E-05,-0.000345391,,,,,,,
10.34189612,0.810604288,4.25676E-05,-0.000345391,,,,,,,
10.34303098,1.578483165,6.3164E-05,-0.000501308,,,,,,,
10.34303098,1.578483165,6.3164E-05,-0.000501308,,,,,,,
10.34963157,0.581520264,3.23577E-05,-0.00026707,,,,,,,
10.35289997,1.934161659,6.67498E-05,-0.000519489,,,,,,,
10.35502317,0.350909346,2.04964E-05,-0.000172994,,,,,,,
10.35807092,0.118771537,7.2048E-06,-6.26E-05,,,,,,,
10.35807092,0.118771537,7.2048E-06,-6.26E-05,,,,,,,
10.37369056,1.395791003,5.89653E-05,-0.000478933,,,,,,,
10.37369056,1.395791003,5.89653E-05,-0.000478933,,,,,,,
10.37793112,2,6.63832E-05,-0.000519299,,,,,,,
10.38305172,1.723403242,6.37674E-05,-0.000512994,,,,,,,
10.38677966,1.171381681,5.33007E-05,-0.000438917,,,,,,,
10.38677966,1.171381681,5.33007E-05,-0.000438917,,,,,,,
10.40842356,0.93690031,4.54888E-05,-0.000382299,,,,,,,
10.40842356,0.93690031,4.54888E-05,-0.000382299,,,,,,,
10.41369198,0.698764908,3.62362E-05,-0.000309028,,,,,,,
10.41369198,0.698764908,3.62362E-05,-0.000309028,,,,,,,
10.42142742,0.469680883,2.56338E-05,-0.000223326,,,,,,,
10.42142742,0.469680883,2.56338E-05,-0.000223326,,,,,,,
10.42307245,1.868323319,6.39199E-05,-0.000519106,,,,,,,
10.42307245,1.868323319,6.39199E-05,-0.000519106,,,,,,,
10.42324501,1.49940143,5.92853E-05,-0.000493032,,,,,,,
10.42324501,1.49940143,5.92853E-05,-0.000493032,,,,,,,
10.42447518,0.237543073,1.35352E-05,-0.00012102,,,,,,,
10.42447518,0.237543073,1.35352E-05,-0.00012102,,,,,,,
10.42708333,0,0,0,,,,,,,
10.44511935,1.295850687,5.45864E-05,-0.000463031,,,,,,,
10.44511935,1.295850687,5.45864E-05,-0.000463031,,,,,,,
10.44810359,1.934161659,6.36387E-05,-0.000520082,,,,,,,
10.46326575,1.644321506,6.01866E-05,-0.000507833,,,,,,,
10.46676325,1.061369316,4.78454E-05,-0.000414396,,,,,,,
10.47313474,2,6.32858E-05,-0.000519908,,,,,,,
10.48021941,0.825060929,3.96547E-05,-0.00034993,,,,,,,
10.48548783,0.586925527,2.99306E-05,-0.000269052,,,,,,,
10.48548783,0.586925527,2.99306E-05,-0.000269052,,,,,,,
10.49087943,0.35631461,1.9027E-05,-0.000175276,,,,,,,
10.49087943,0.35631461,1.9027E-05,-0.000175276,,,,,,,
10.49348759,0.118771537,6.5795E-06,-6.26E-05,,,,,,,
10.50328648,1.789241583,6.05986E-05,-0.000517044,,,,,,,
10.50345904,1.420319694,5.53536E-05,-0.000483004,,,,,,,
10.50345904,1.420319694,5.53536E-05,-0.000483004,,,,,,,
10.50345904,1.420319694,5.53536E-05,-0.000483004,,,,,,,
10.50345904,1.420319694,5.53536E-05,-0.000483004,,,,,,,
10.50345904,1.420319694,5.53536E-05,-0.000483004,,,,,,,
10.50345904,1.420319694,5.53536E-05,-0.000483004,,,,,,,
10.52510294,1.185838322,4.95772E-05,-0.000442291,,,,,,,
10.54330721,1.934161659,6.05914E-05,-0.000520667,,,,,,,
10.54330721,1.934161659,6.05914E-05,-0.000520667,,,,,,,
10.54347978,1.56523977,5.6547E-05,-0.000500933,,,,,,,
10.54347978,1.56523977,5.6547E-05,-0.000500933,,,,,,,
10.54674684,0.951356951,4.23145E-05,-0.000386434,,,,,,,
10.54674684,0.951356951,4.23145E-05,-0.000386434,,,,,,,
10.55201526,0.713221549,3.37957E-05,-0.000313973,,,,,,,
10.55728368,0.475086147,2.37248E-05,-0.000225458,,,,,,,
10.55728368,0.475086147,2.37248E-05,-0.000225458,,,,,,,
10.55728368,0.475086147,2.37248E-05,-0.000225458,,,,,,,
10.55728368,0.475086147,2.37248E-05,-0.000225458,,,,,,,
10.55728368,0.475086147,2.37248E-05,-0.000225458,,,,,,,
10.55728368,0.475086147,2.37248E-05,-0.000225458,,,,,,,
10.55989184,0.237543073,1.23716E-05,-0.000120934,,,,,,,
10.5625,0,0,0,,,,,,,
10.56833836,2,6.02479E-05,-0.000520508,,,,,,,
10.58344263,1.310307328,5.07578E-05,-0.000466014,,,,,,,
10.58344263,1.310307328,5.07578E-05,-0.000466014,,,,,,,
10.58350051,1.710159847,5.72213E-05,-0.000513252,,,,,,,
10.58350051,1.710159847,5.72213E-05,-0.000513252,,,,,,,
10.60508653,1.075825957,4.44656E-05,-0.000418134,,,,,,,
10.61854269,0.83951757,3.68968E-05,-0.000354453,,,,,,,
10.62352124,1.855079923,5.7445E-05,-0.000519973,,,,,,,
10.62352124,1.855079923,5.7445E-05,-0.000519973,,,,,,,
10.62381112,0.601382168,2.79792E-05,-0.000274417,,,,,,,
10.62381112,0.601382168,2.79792E-05,-0.000274417,,,,,,,
10.6262961,0.35631461,1.74051E-05,-0.000175201,,,,,,,
10.6262961,0.35631461,1.74051E-05,-0.000175201,,,,,,,
10.62890425,0.118771537,6.00511E-06,-6.25E-05,,,,,,,
10.65177711,1.455338526,5.15177E-05,-0.000488424,,,,,,,
10.65177711,1.455338526,5.15177E-05,-0.000488424,,,,,,,
10.66342623,1.200294963,4.60432E-05,-0.00044563,,,,,,,
10.66342623,1.200294963,4.60432E-05,-0.00044563,,,,,,,
10.66354198,2,5.72711E-05,-0.000521094,,,,,,,
10.66354198,2,5.72711E-05,-0.000521094,,,,,,,
10.66354198,2,5.72711E-05,-0.000521094,,,,,,,
10.66354198,2,5.72711E-05,-0.000521094,,,,,,,
10.68507013,0.965813592,3.93063E-05,-0.000390541,,,,,,,
10.68507013,0.965813592,3.93063E-05,-0.000390541,,,,,,,
10.69033855,0.72767819,3.14759E-05,-0.000318895,,,,,,,
10.69033855,0.72767819,3.14759E-05,-0.000318895,,,,,,,
10.69179784,1.600258602,5.25498E-05,-0.00050508,,,,,,,
10.69530851,0.237543073,1.12987E-05,-0.000120865,,,,,,,
10.69530851,0.237543073,1.12987E-05,-0.000120865,,,,,,,
10.69580682,0.479906683,2.18721E-05,-0.00022737,,,,,,,
10.69580682,0.479906683,2.18721E-05,-0.00022737,,,,,,,
10.69791667,0,0,0,,,,,,,
10.7317607,1.345326161,4.72324E-05,-0.000472402,,,,,,,
10.73181857,1.745178679,5.30986E-05,-0.000516115,,,,,,,
10.74340982,1.090282598,4.12559E-05,-0.000421833,,,,,,,
10.74340982,1.090282598,4.12559E-05,-0.000421833,,,,,,,
10.75686598,0.853974211,3.42768E-05,-0.000358945,,,,,,,
10.75686598,0.853974211,3.42768E-05,-0.000358945,,,,,,,
10.76233425,0.606202705,2.57547E-05,-0.00027621,,,,,,,
10.76432092,0.118771537,5.47619E-06,-6.25E-05,,,,,,,
10.76432092,0.118771537,5.47619E-06,-6.25E-05,,,,,,,
10.76481923,0.361135147,1.60726E-05,-0.00017726,,,,,,,
10.76531538,2,5.41572E-05,-0.0005217,,,,,,,
10.77183931,1.890098756,5.32177E-05,-0.000521539,,,,,,,
10.77183931,1.890098756,5.32177E-05,-0.000521539,,,,,,,
10.80009517,1.490357358,4.78194E-05,-0.00049353,,,,,,,
10.80009517,1.490357358,4.78194E-05,-0.00049353,,,,,,,
10.81174429,1.235313795,4.28557E-05,-0.000452991,,,,,,,
10.82339341,0.980270233,3.64449E-05,-0.000394609,,,,,,,
10.82339341,0.980270233,3.64449E-05,-0.000394609,,,,,,,
10.82339341,0.980270233,3.64449E-05,-0.000394609,,,,,,,
10.82339341,0.980270233,3.64449E-05,-0.000394609,,,,,,,
10.82339341,0.980270233,3.64449E-05,-0.000394609,,,,,,,
10.82339341,0.980270233,3.64449E-05,-0.000394609,,,,,,,
10.82886168,0.732498726,2.89457E-05,-0.000320584,,,,,,,
10.83333333,0,0,0,,,,,,,
10.83333333,0,0,0,,,,,,,
10.83333333,0,0,0,,,,,,,
10.83383164,0.24236361,1.04866E-05,-0.000123091,,,,,,,
10.83432995,0.48472722,2.01345E-05,-0.000229293,,,,,,,
10.83432995,0.48472722,2.01345E-05,-0.000229293,,,,,,,
10.8401159,1.635277435,4.86855E-05,-0.000508898,,,,,,,
10.86708878,2,5.11146E-05,-0.000522281,,,,,,,
10.87361271,1.890098756,5.02094E-05,-0.000522085,,,,,,,
10.88007876,1.380344993,4.38238E-05,-0.000478474,,,,,,,
10.88013664,1.780197511,4.90995E-05,-0.000518637,,,,,,,
10.88013664,1.780197511,4.90995E-05,-0.000518637,,,,,,,
10.89172788,1.12530143,3.84285E-05,-0.000430178,,,,,,,
10.89172788,1.12530143,3.84285E-05,-0.000430178,,,,,,,
10.89538911,0.858794748,3.14989E-05,-0.000360535,,,,,,,
10.89538911,0.858794748,3.14989E-05,-0.000360535,,,,,,,
10.90085738,0.611023241,2.36649E-05,-0.000278012,,,,,,,
10.90284405,0.123592073,5.17583E-06,-6.49E-05,,,,,,,
10.90284405,0.123592073,5.17583E-06,-6.49E-05,,,,,,,
10.90334236,0.365955683,1.48173E-05,-0.000179328,,,,,,,
10.94841324,1.52537619,4.42367E-05,-0.000498305,,,,,,,
10.94841324,1.52537619,4.42367E-05,-0.000498305,,,,,,,
10.96006236,1.270332628,3.976E-05,-0.000460038,,,,,,,
10.96006236,1.270332628,3.976E-05,-0.000460038,,,,,,,
10.96738481,0.737319263,2.65624E-05,-0.000322273,,,,,,,
10.96738481,0.737319263,2.65624E-05,-0.000322273,,,,,,,
10.96789446,0.987479433,3.33981E-05,-0.000396738,,,,,,,
10.96789446,0.987479433,3.33981E-05,-0.000396738,,,,,,,
10.96875,0,0,0,,,,,,,
10.96886218,2,4.81428E-05,-0.000522834,,,,,,,
10.97235477,0.247184146,9.71305E-06,-0.000125319,,,,,,,
10.97235477,0.247184146,9.71305E-06,-0.000125319,,,,,,,
10.97285308,0.489547756,1.84986E-05,-0.000231223,,,,,,,
10.97285308,0.489547756,1.84986E-05,-0.000231223,,,,,,,
10.97538611,1.890098756,4.72752E-05,-0.000522602,,,,,,,
10.98191004,1.780197511,4.62079E-05,-0.000519118,,,,,,,
10.98843397,1.670296267,4.49347E-05,-0.000512374,,,,,,,
10.98843397,1.670296267,4.49347E-05,-0.000512374,,,,,,,
11.02839683,1.415363825,4.05126E-05,-0.000484217,,,,,,,
11.02839683,1.415363825,4.05126E-05,-0.000484217,,,,,,,
11.03622893,1.13251063,3.51785E-05,-0.0004321,,,,,,,
11.03826072,0.123592073,4.70548E-06,-6.48E-05,,,,,,,
11.03938051,0.615843777,2.16943E-05,-0.000279815,,,,,,,
11.03938051,0.615843777,2.16943E-05,-0.000279815,,,,,,,
11.03989016,0.866003947,2.88204E-05,-0.000362833,,,,,,,
11.04186549,0.370776219,1.36298E-05,-0.0001814,,,,,,,
11.04186549,0.370776219,1.36298E-05,-0.0001814,,,,,,,
11.07063558,2,4.52413E-05,-0.000523357,,,,,,,
11.07063558,2,4.52413E-05,-0.000523357,,,,,,,
11.07715951,1.890098756,4.44136E-05,-0.000523091,,,,,,,
11.07715951,1.890098756,4.44136E-05,-0.000523091,,,,,,,
11.08368344,1.780197511,4.33919E-05,-0.00051957,,,,,,,
11.08368344,1.780197511,4.33919E-05,-0.00051957,,,,,,,
11.09020737,1.670296267,4.21725E-05,-0.000512789,,,,,,,
11.09020737,1.670296267,4.21725E-05,-0.000512789,,,,,,,
11.0967313,1.560395022,4.07512E-05,-0.000502739,,,,,,,
11.0967313,1.560395022,4.07512E-05,-0.000502739,,,,,,,
11.0967313,1.560395022,4.07512E-05,-0.000502739,,,,,,,
11.0967313,1.560395022,4.07512E-05,-0.000502739,,,,,,,
11.0967313,1.560395022,4.07512E-05,-0.000502739,,,,,,,
11.0967313,1.560395022,4.07512E-05,-0.000502739,,,,,,,
11.0967313,1.560395022,4.07512E-05,-0.000502739,,,,,,,
11.10416667,0,0,0,,,,,,,
11.10456341,1.277541827,3.63536E-05,-0.000461746,,,,,,,
11.10777144,0.247184146,8.82633E-06,-0.000125281,,,,,,,
11.11137621,0.494368292,1.69518E-05,-0.000233155,,,,,,,
11.11137621,0.494368292,1.69518E-05,-0.000233155,,,,,,,
11.11137621,0.494368292,1.69518E-05,-0.000233155,,,,,,,
11.11137621,0.494368292,1.69518E-05,-0.000233155,,,,,,,
11.11137621,0.494368292,1.69518E-05,-0.000233155,,,,,,,
11.11137621,0.494368292,1.69518E-05,-0.000233155,,,,,,,
11.11188586,0.744528462,2.42736E-05,-0.000324753,,,,,,,
11.11239551,0.994688632,3.05073E-05,-0.000398845,,,,,,,
11.11239551,0.994688632,3.05073E-05,-0.000398845,,,,,,,
11.17289788,1.422573025,3.69871E-05,-0.000485703,,,,,,,
11.17289788,1.422573025,3.69871E-05,-0.000485703,,,,,,,
11.17367738,0.123592073,4.26743E-06,-6.48E-05,,,,,,,
11.17728215,0.370776219,1.23774E-05,-0.000181373,,,,,,,
11.17728215,0.370776219,1.23774E-05,-0.000181373,,,,,,,
11.17943213,2,4.2216E-05,-0.000523882,,,,,,,
11.18072999,1.13971983,3.20822E-05,-0.000433989,,,,,,,
11.18388156,0.623052977,1.98104E-05,-0.00028249,,,,,,,
11.18388156,0.623052977,1.98104E-05,-0.00028249,,,,,,,
11.18439121,0.873213147,2.62774E-05,-0.000365112,,,,,,,
11.18595606,1.890098756,4.14322E-05,-0.000523579,,,,,,,
11.19247999,1.780197511,4.04617E-05,-0.000520021,,,,,,,
11.19900392,1.670296267,3.9303E-05,-0.000513201,,,,,,,
11.19900392,1.670296267,3.9303E-05,-0.000513201,,,,,,,
11.23958333,0,0,0,,,,,,,
11.2431881,0.247184146,7.99709E-06,-0.000125248,,,,,,,
11.2431881,0.247184146,7.99709E-06,-0.000125248,,,,,,,
11.24906446,1.284751027,3.30948E-05,-0.000463411,,,,,,,
11.24906446,1.284751027,3.30948E-05,-0.000463411,,,,,,,
11.24977973,1.548534429,3.67039E-05,-0.000501965,,,,,,,
11.24977973,1.548534429,3.67039E-05,-0.000501965,,,,,,,
11.25299252,0.49618321,1.53624E-05,-0.000233882,,,,,,,
11.25299252,0.49618321,1.53624E-05,-0.000233882,,,,,,,
11.25638691,0.751737662,2.20969E-05,-0.000327218,,,,,,,
11.25638691,0.751737662,2.20969E-05,-0.000327218,,,,,,,
11.25689657,1.001897832,2.77533E-05,-0.000400924,,,,,,,
11.25689657,1.001897832,2.77533E-05,-0.000400924,,,,,,,
11.28822868,2,3.92675E-05,-0.00052437,,,,,,,
11.29475261,1.890098756,3.85284E-05,-0.000524033,,,,,,,
11.30127654,1.780197511,3.76109E-05,-0.000520439,,,,,,,
11.30127654,1.780197511,3.76109E-05,-0.000520439,,,,,,,
11.30909405,0.123592073,3.85773E-06,-6.48E-05,,,,,,,
11.30909405,0.123592073,3.85773E-06,-6.48E-05,,,,,,,
11.31889846,0.372591137,1.12008E-05,-0.000182142,,,,,,,
11.32523104,1.146929029,2.91212E-05,-0.000435841,,,,,,,
11.32523104,1.146929029,2.91212E-05,-0.000435841,,,,,,,
11.32549787,0.624867895,1.7916E-05,-0.000283188,,,,,,,
11.3259463,1.410712432,3.31496E-05,-0.000484386,,,,,,,
11.32889226,0.880422347,2.38523E-05,-0.00036737,,,,,,,
11.32889226,0.880422347,2.38523E-05,-0.00036737,,,,,,,
11.35205234,1.658435674,3.52947E-05,-0.000512789,,,,,,,
11.375,0,0,0,,,,,,,
11.375,0,0,0,,,,,,,
11.375,0,0,0,,,,,,,
11.38480441,0.248999064,7.23489E-06,-0.000126074,,,,,,,
11.39460883,0.497998128,1.38603E-05,-0.00023461,,,,,,,
11.39460883,0.497998128,1.38603E-05,-0.00023461,,,,,,,
11.39702522,2,3.6393E-05,-0.000524823,,,,,,,
11.39800322,0.75355258,1.99405E-05,-0.000327891,,,,,,,
11.40139762,1.009107032,2.51185E-05,-0.000402973,,,,,,,
11.40139762,1.009107032,2.51185E-05,-0.000402973,,,,,,,
11.40139762,1.009107032,2.51185E-05,-0.000402973,,,,,,,
11.40139762,1.009107032,2.51185E-05,-0.000402973,,,,,,,
11.40139762,1.009107032,2.51185E-05,-0.000402973,,,,,,,
11.40139762,1.009107032,2.51185E-05,-0.000402973,,,,,,,
11.40211288,1.272890434,2.95017E-05,-0.000461553,,,,,,,
11.40282815,1.536673837,3.28392E-05,-0.000501084,,,,,,,
11.40282815,1.536673837,3.28392E-05,-0.000501084,,,,,,,
11.40354915,1.890098756,3.56991E-05,-0.000524451,,,,,,,
11.40354915,1.890098756,3.56991E-05,-0.000524451,,,,,,,
11.45071036,0.125406991,3.50563E-06,-6.57E-05,,,,,,,
11.45071036,0.125406991,3.50563E-06,-6.57E-05,,,,,,,
11.45432496,1.768336918,3.36441E-05,-0.00052038,,,,,,,
11.46051477,0.374406055,1.00865E-05,-0.000182914,,,,,,,
11.46711418,0.626682813,1.61192E-05,-0.000283882,,,,,,,
11.47050857,0.882237265,2.14722E-05,-0.00036802,,,,,,,
11.47050857,0.882237265,2.14722E-05,-0.00036802,,,,,,,
11.47827946,1.135068436,2.58063E-05,-0.000433447,,,,,,,
11.47827946,1.135068436,2.58063E-05,-0.000433447,,,,,,,
11.47899473,1.398851839,2.94965E-05,-0.000482969,,,,,,,
11.50510077,1.646575081,3.14528E-05,-0.000512267,,,,,,,
11.50582177,2,3.35897E-05,-0.000525238,,,,,,,
11.50582177,2,3.35897E-05,-0.000525238,,,,,,,
11.50582177,2,3.35897E-05,-0.000525238,,,,,,,
11.51041667,0,0,0,,,,,,,
11.52642072,0.250813982,6.50968E-06,-0.000126903,,,,,,,
11.52642072,0.250813982,6.50968E-06,-0.000126903,,,,,,,
11.53622514,0.499813046,1.24337E-05,-0.000235338,,,,,,,
11.53622514,0.499813046,1.24337E-05,-0.000235338,,,,,,,
11.53961953,0.755367498,1.78875E-05,-0.000328555,,,,,,,
11.53961953,0.755367498,1.78875E-05,-0.000328555,,,,,,,
11.54858242,1.008077038,2.24005E-05,-0.000402868,,,,,,,
11.54858242,1.008077038,2.24005E-05,-0.000402868,,,,,,,
11.55516131,1.261029841,2.60917E-05,-0.000459604,,,,,,,
11.55516131,1.261029841,2.60917E-05,-0.000459604,,,,,,,
11.55587657,1.524813244,2.91435E-05,-0.000500101,,,,,,,
11.55587657,1.524813244,2.91435E-05,-0.000500101,,,,,,,
11.55659758,1.878238163,3.17779E-05,-0.00052474,,,,,,,
11.55659758,1.878238163,3.17779E-05,-0.00052474,,,,,,,
11.58612703,0.125406991,3.13764E-06,-6.57E-05,,,,,,,
11.60213108,0.376220973,9.02555E-06,-0.000183687,,,,,,,
11.60213108,0.376220973,9.02555E-06,-0.000183687,,,,,,,
11.60737338,1.756476326,2.98301E-05,-0.000520211,,,,,,,
11.60737338,1.756476326,2.98301E-05,-0.000520211,,,,,,,
11.60873049,0.628497731,1.4407E-05,-0.000284571,,,,,,,
11.60873049,0.628497731,1.4407E-05,-0.000284571,,,,,,,
11.61769337,0.881207271,1.90591E-05,-0.000367822,,,,,,,
11.62212611,2,3.06676E-05,-0.000525644,,,,,,,
11.62546426,1.134038443,2.29365E-05,-0.000433414,,,,,,,
11.63204315,1.386991246,2.60122E-05,-0.000481457,,,,,,,
11.63204315,1.386991246,2.60122E-05,-0.000481457,,,,,,,
11.64583333,0,0,0,,,,,,,
11.65814919,1.634714488,2.77652E-05,-0.00051164,,,,,,,
11.65814919,1.634714488,2.77652E-05,-0.00051164,,,,,,,
11.66183739,0.250813982,5.80645E-06,-0.000126882,,,,,,,
11.67290192,1.878238163,2.89361E-05,-0.000525095,,,,,,,
11.67784144,0.501627964,1.10719E-05,-0.000236065,,,,,,,
11.67784144,0.501627964,1.10719E-05,-0.000236065,,,,,,,
11.67784144,0.501627964,1.10719E-05,-0.000236065,,,,,,,
11.67784144,0.501627964,1.10719E-05,-0.000236065,,,,,,,
11.67784144,0.501627964,1.10719E-05,-0.000236065,,,,,,,
11.67784144,0.501627964,1.10719E-05,-0.000236065,,,,,,,
11.68680433,0.754337504,1.57966E-05,-0.000328275,,,,,,,
11.69576722,1.007047044,1.98051E-05,-0.00040274,,,,,,,
11.69576722,1.007047044,1.98051E-05,-0.00040274,,,,,,,
11.70234611,1.259999847,2.30944E-05,-0.000459637,,,,,,,
11.708925,1.512952651,2.56032E-05,-0.000499017,,,,,,,
11.708925,1.512952651,2.56032E-05,-0.000499017,,,,,,,
11.708925,1.512952651,2.56032E-05,-0.000499017,,,,,,,
11.708925,1.512952651,2.56032E-05,-0.000499017,,,,,,,
11.708925,1.512952651,2.56032E-05,-0.000499017,,,,,,,
11.708925,1.512952651,2.56032E-05,-0.000499017,,,,,,,
11.72154369,0.125406991,2.78826E-06,-6.57E-05,,,,,,,
11.72367773,1.756476326,2.70811E-05,-0.000520518,,,,,,,
11.73754775,0.376220973,8.01835E-06,-0.000183673,,,,,,,
11.73754775,0.376220973,8.01835E-06,-0.000183673,,,,,,,
11.73843046,2,2.7818E-05,-0.00052601,,,,,,,
11.75591529,0.627467737,1.26521E-05,-0.000284219,,,,,,,
11.75591529,0.627467737,1.26521E-05,-0.000284219,,,,,,,
11.76487817,0.880177277,1.67558E-05,-0.000367608,,,,,,,
11.77264906,1.133008449,2.0184E-05,-0.000433351,,,,,,,
11.77445354,1.634714488,2.51226E-05,-0.000511902,,,,,,,
11.77445354,1.634714488,2.51226E-05,-0.000511902,,,,,,,
11.77922795,1.385961252,2.29094E-05,-0.000481549,,,,,,,
11.77922795,1.385961252,2.29094E-05,-0.000481549,,,,,,,
11.78125,0,0,0,,,,,,,
11.78920626,1.878238163,2.61638E-05,-0.000525414,,,,,,,
11.79725406,0.250813982,5.13618E-06,-0.000126863,,,,,,,
11.79725406,0.250813982,5.13618E-06,-0.000126863,,,,,,,
11.82649895,0.501563766,9.66672E-06,-0.000236039,,,,,,,
11.82649895,0.501563766,9.66672E-06,-0.000236039,,,,,,,
11.83398913,0.75330751,1.38012E-05,-0.000327984,,,,,,,
11.83398913,0.75330751,1.38012E-05,-0.000327984,,,,,,,
11.83998207,1.756476326,2.43988E-05,-0.000520793,,,,,,,
11.83998207,1.756476326,2.43988E-05,-0.000520793,,,,,,,
11.84295202,1.00601705,1.73168E-05,-0.000402589,,,,,,,
11.84295202,1.00601705,1.73168E-05,-0.000402589,,,,,,,
11.84953091,1.258969854,2.02084E-05,-0.000459634,,,,,,,
11.84953091,1.258969854,2.02084E-05,-0.000459634,,,,,,,
11.8537886,1.510527678,2.2453E-05,-0.00049899,,,,,,,
11.8537886,1.510527678,2.2453E-05,-0.00049899,,,,,,,
11.8547348,2,2.50358E-05,-0.000526337,,,,,,,
11.85696036,0.125406991,2.45488E-06,-6.56E-05,,,,,,,
11.85696036,0.125406991,2.45488E-06,-6.56E-05,,,,,,,
11.88620525,0.376156776,6.96147E-06,-0.000183631,,,,,,,
11.90457279,0.62740354,1.09762E-05,-0.000284215,,,,,,,
11.90551061,1.878238163,2.34555E-05,-0.000525698,,,,,,,
11.90551061,1.878238163,2.34555E-05,-0.000525698,,,,,,,
11.91206297,0.879147283,1.45476E-05,-0.000367378,,,,,,,
11.91206297,0.879147283,1.45476E-05,-0.000367378,,,,,,,
11.91666667,0,0,0,,,,,,,
11.91666667,0,0,0,,,,,,,
11.91666667,0,0,0,,,,,,,
11.91931713,1.632289516,2.1905E-05,-0.000511971,,,,,,,
11.91983386,1.131978455,1.75341E-05,-0.000433261,,,,,,,
11.91983386,1.131978455,1.75341E-05,-0.000433261,,,,,,,
11.92409155,1.38353628,1.99454E-05,-0.000481381,,,,,,,
11.94591156,0.250749785,4.43167E-06,-0.000126815,,,,,,,
11.97103915,2,2.23156E-05,-0.000526628,,,,,,,
11.97103915,2,2.23156E-05,-0.000526628,,,,,,,
11.97103915,2,2.23156E-05,-0.000526628,,,,,,,
11.97515645,0.501499569,8.32195E-06,-0.000236011,,,,,,,
11.97515645,0.501499569,8.32195E-06,-0.000236011,,,,,,,
11.98264663,0.753243313,1.18823E-05,-0.000328003,,,,,,,
11.98484567,1.754051353,2.11311E-05,-0.000520954,,,,,,,
11.99013682,1.004987056,1.4921E-05,-0.000402418,,,,,,,
11.99013682,1.004987056,1.4921E-05,-0.000402418,,,,,,,
11.99013682,1.004987056,1.4921E-05,-0.000402418,,,,,,,
11.99013682,1.004987056,1.4921E-05,-0.000402418,,,,,,,
11.99013682,1.004987056,1.4921E-05,-0.000402418,,,,,,,
11.99013682,1.004987056,1.4921E-05,-0.000402418,,,,,,,
11.99439451,1.256544881,1.74498E-05,-0.000459331,,,,,,,
11.99865219,1.508102706,1.94005E-05,-0.000498919,,,,,,,
11.99865219,1.508102706,1.94005E-05,-0.000498919,,,,,,,
12.00561786,0.125342794,2.10338E-06,-6.56E-05,,,,,,,
12.00561786,0.125342794,2.10338E-06,-6.56E-05,,,,,,,
12.03486276,0.376092579,5.94905E-06,-0.00018359,,,,,,,
12.05037421,1.87581319,2.01552E-05,-0.000525948,,,,,,,
12.05037421,1.87581319,2.01552E-05,-0.000525948,,,,,,,
12.05208333,0,0,0,,,,,,,
12.0532303,0.627339343,9.36552E-06,-0.000284206,,,,,,,
12.06072048,0.879083086,1.24115E-05,-0.00036742,,,,,,,
12.06072048,0.879083086,1.24115E-05,-0.00036742,,,,,,,
12.06418073,1.629864543,1.87793E-05,-0.000511994,,,,,,,
12.06469746,1.129553482,1.49992E-05,-0.000432828,,,,,,,
12.06469746,1.129553482,1.49992E-05,-0.000432828,,,,,,,
12.06895515,1.381111307,1.70731E-05,-0.000481177,,,,,,,
12.09456906,0.250685588,3.75602E-06,-0.000126769,,,,,,,
12.09456906,0.250685588,3.75602E-06,-0.000126769,,,,,,,
12.09536938,2,1.94698E-05,-0.0005269,,,,,,,
12.12381396,0.501435372,7.02791E-06,-0.000235983,,,,,,,
12.12381396,0.501435372,7.02791E-06,-0.000235983,,,,,,,
12.12970927,1.75162638,1.795E-05,-0.000521066,,,,,,,
12.12970927,1.75162638,1.795E-05,-0.000521066,,,,,,,
12.13130414,0.753179116,1.00307E-05,-0.000328013,,,,,,,
12.13130414,0.753179116,1.00307E-05,-0.000328013,,,,,,,
12.1392581,1.254119908,1.47762E-05,-0.000458997,,,,,,,
12.1392581,1.254119908,1.47762E-05,-0.000458997,,,,,,,
12.14056285,1.004139942,1.25563E-05,-0.000402278,,,,,,,
12.14056285,1.004139942,1.25563E-05,-0.000402278,,,,,,,
12.14103453,0.125342794,1.79628E-06,-6.56E-05,,,,,,,
12.14351579,1.505677733,1.64334E-05,-0.000498809,,,,,,,
12.14351579,1.505677733,1.64334E-05,-0.000498809,,,,,,,
12.17470444,1.87581319,1.73942E-05,-0.000526171,,,,,,,
12.18352026,0.376028381,4.97369E-06,-0.000183551,,,,,,,
12.18352026,0.376028381,4.97369E-06,-0.000183551,,,,,,,
12.1875,0,0,0,,,,,,,
12.2018878,0.627275146,7.80938E-06,-0.000284193,,,,,,,
12.2018878,0.627275146,7.80938E-06,-0.000284193,,,,,,,
12.20904433,1.627439571,1.57338E-05,-0.000511973,,,,,,,
12.20904433,1.627439571,1.57338E-05,-0.000511973,,,,,,,
12.21114651,0.878235972,1.03104E-05,-0.000367219,,,,,,,
12.21381875,1.378686335,1.42803E-05,-0.000480938,,,,,,,
12.21381875,1.378686335,1.42803E-05,-0.000480938,,,,,,,
12.21512349,1.128706368,1.24624E-05,-0.000432733,,,,,,,
12.21969962,2,1.66811E-05,-0.000527132,,,,,,,
12.22998573,0.250685588,3.1621E-06,-0.000126757,,,,,,,
12.2540395,1.75162638,1.52873E-05,-0.000521245,,,,,,,
12.27247146,0.501371175,5.77574E-06,-0.000235955,,,,,,,
12.27247146,0.501371175,5.77574E-06,-0.000235955,,,,,,,
12.27247146,0.501371175,5.77574E-06,-0.000235955,,,,,,,
12.27247146,0.501371175,5.77574E-06,-0.000235955,,,,,,,
12.27247146,0.501371175,5.77574E-06,-0.000235955,,,,,,,
12.27247146,0.501371175,5.77574E-06,-0.000235955,,,,,,,
12.2764512,0.125342794,1.49856E-06,-6.56E-05,,,,,,,
12.28173017,0.752332002,8.2065E-06,-0.000327758,,,,,,,
12.28837939,1.503252761,1.35399E-05,-0.000498662,,,,,,,
12.28837939,1.503252761,1.35399E-05,-0.000498662,,,,,,,
12.28837939,1.503252761,1.35399E-05,-0.000498662,,,,,,,
12.28837939,1.503252761,1.35399E-05,-0.000498662,,,,,,,
12.28837939,1.503252761,1.35399E-05,-0.000498662,,,,,,,
12.28837939,1.503252761,1.35399E-05,-0.000498662,,,,,,,
12.28968414,1.253272795,1.20877E-05,-0.000458945,,,,,,,
12.29098888,1.003292828,1.02604E-05,-0.000402121,,,,,,,
12.29098888,1.003292828,1.02604E-05,-0.000402121,,,,,,,
12.29903468,1.87581319,1.46844E-05,-0.000526359,,,,,,,
12.31893693,0.376028381,4.11228E-06,-0.000183542,,,,,,,
12.31893693,0.376028381,4.11228E-06,-0.000183542,,,,,,,
12.32291667,0,0,0,,,,,,,
12.33337457,1.627439571,1.31828E-05,-0.000512114,,,,,,,
12.33337457,1.627439571,1.31828E-05,-0.000512114,,,,,,,
12.34402985,2,1.39421E-05,-0.000527328,,,,,,,
12.35231383,0.626428032,6.27306E-06,-0.000283891,,,,,,,
12.35231383,0.626428032,6.27306E-06,-0.000283891,,,,,,,
12.36157254,0.877388858,8.26843E-06,-0.000367006,,,,,,,
12.36424478,1.377839221,1.14599E-05,-0.000480924,,,,,,,
12.36424478,1.377839221,1.14599E-05,-0.000480924,,,,,,,
12.3654024,0.250685588,2.58418E-06,-0.000126747,,,,,,,
12.3654024,0.250685588,2.58418E-06,-0.000126747,,,,,,,
12.36554952,1.127859255,9.99069E-06,-0.000432618,,,,,,,
12.37836974,1.75162638,1.26698E-05,-0.000521394,,,,,,,
12.37836974,1.75162638,1.26698E-05,-0.000521394,,,,,,,
12.41186786,0.125342794,1.2085E-06,-6.56E-05,,,,,,,
12.41186786,0.125342794,1.2085E-06,-6.56E-05,,,,,,,
12.42336492,1.87581319,1.20181E-05,-0.000526514,,,,,,,
12.42336492,1.87581319,1.20181E-05,-0.000526514,,,,,,,
12.4321562,0.751484888,6.43147E-06,-0.000327496,,,,,,,
12.4321562,0.751484888,6.43147E-06,-0.000327496,,,,,,,
12.44011017,1.252425681,9.45984E-06,-0.000458868,,,,,,,
12.44011017,1.252425681,9.45984E-06,-0.000458868,,,,,,,
12.44141491,1.002445714,8.02062E-06,-0.000401948,,,,,,,
12.44141491,1.002445714,8.02062E-06,-0.000401948,,,,,,,
12.45435359,0.501028381,4.2868E-06,-0.000235813,,,,,,,
12.45435359,0.501028381,4.2868E-06,-0.000235813,,,,,,,
12.45833333,0,0,0,,,,,,,
12.45833333,0,0,0,,,,,,,
12.45833333,0,0,0,,,,,,,
12.46628454,1.502439571,1.00775E-05,-0.000498705,,,,,,,
12.46628454,1.502439571,1.00775E-05,-0.000498705,,,,,,,
12.46836009,2,1.1245E-05,-0.000527487,,,,,,,
12.46836009,2,1.1245E-05,-0.000527487,,,,,,,
12.46836009,2,1.1245E-05,-0.000527487,,,,,,,
12.50081906,0.375685588,2.98368E-06,-0.000183383,,,,,,,
12.51127972,1.62662638,9.59771E-06,-0.000512195,,,,,,,
12.51199857,0.876541744,6.27388E-06,-0.000366783,,,,,,,
12.51199857,0.876541744,6.27388E-06,-0.000366783,,,,,,,
12.51597556,1.127012141,7.57141E-06,-0.000432483,,,,,,,
12.51597556,1.127012141,7.57141E-06,-0.000432483,,,,,,,
12.53419597,0.626085238,4.47185E-06,-0.000283771,,,,,,,
12.54214993,1.377026031,8.19544E-06,-0.000480901,,,,,,,
12.54728453,0.250342794,1.82521E-06,-0.000126575,,,,,,,
12.55627489,1.75081319,8.98678E-06,-0.000521509,,,,,,,
12.59184095,1.001598601,5.82499E-06,-0.000401762,,,,,,,
12.59184095,1.001598601,5.82499E-06,-0.000401762,,,,,,,
12.59184095,1.001598601,5.82499E-06,-0.000401762,,,,,,,
12.59184095,1.001598601,5.82499E-06,-0.000401762,,,,,,,
12.59184095,1.001598601,5.82499E-06,-0.000401762,,,,,,,
12.59184095,1.001598601,5.82499E-06,-0.000401762,,,,,,,
12.59375,0,0,0,,,,,,,
12.59375,0.125,8.25874E-07,-6.54E-05,,,,,,,
12.59375,0.125,8.25874E-07,-6.54E-05,,,,,,,
12.60127007,2,8.39944E-06,-0.000527619,,,,,,,
12.60127007,1.875,8.26237E-06,-0.00052666,,,,,,,
12.60127007,1.875,8.26237E-06,-0.00052666,,,,,,,
12.61403834,0.751142094,4.33959E-06,-0.000327398,,,,,,,
12.61801532,1.25161249,6.41326E-06,-0.000458783,,,,,,,
12.63623573,0.500685588,2.83627E-06,-0.000235673,,,,,,,
12.63623573,0.500685588,2.83627E-06,-0.000235673,,,,,,,
12.6441897,1.50162638,6.68095E-06,-0.000498705,,,,,,,
12.6441897,1.50162638,6.68095E-06,-0.000498705,,,,,,,
12.6827012,0.375342794,1.88287E-06,-0.000183226,,,,,,,
12.68918487,1.62581319,6.07404E-06,-0.000512225,,,,,,,
12.69388071,0.87619895,3.91238E-06,-0.000366704,,,,,,,
12.69388071,0.87619895,3.91238E-06,-0.000366704,,,,,,,
12.69388071,1.00119895,4.35548E-06,-0.000401675,,,,,,,
12.69388071,1.00119895,4.35548E-06,-0.000401675,,,,,,,
12.69388071,1.12619895,4.76164E-06,-0.000432344,,,,,,,
12.69388071,1.12619895,4.76164E-06,-0.000432344,,,,,,,
12.7160781,0.625742444,2.70922E-06,-0.000283649,,,,,,,
12.72005508,1.37621284,4.9867E-06,-0.00048084,,,,,,,
12.72916667,0,0,0,,,,,,,
12.72916667,0.25,1.08423E-06,-0.000126406,,,,,,,
12.72916667,0.125,5.48374E-07,-6.54E-05,,,,,,,
12.72916667,0.25,1.08423E-06,-0.000126406,,,,,,,
12.73418005,2,5.58324E-06,-0.000527713,,,,,,,
12.73418005,1.75,5.36057E-06,-0.000521568,,,,,,,
12.73418005,1.875,5.49236E-06,-0.000526744,,,,,,,
12.73418005,1.75,5.36057E-06,-0.000521568,,,,,,,
12.79592047,0.7507993,2.28391E-06,-0.000327293,,,,,,,
12.79592047,0.7507993,2.28391E-06,-0.000327293,,,,,,,
12.79592047,1.0007993,2.8971E-06,-0.000401582,,,,,,,
12.79592047,0.8757993,2.60204E-06,-0.000366593,,,,,,,
12.79592047,1.0007993,2.8971E-06,-0.000401582,,,,,,,
12.79592047,1.2507993,3.4123E-06,-0.00045867,,,,,,,
12.79592047,1.1257993,3.16762E-06,-0.00043227,,,,,,,
12.79592047,1.2507993,3.4123E-06,-0.00045867,,,,,,,
12.81811786,0.500342794,1.41138E-06,-0.000235533,,,,,,,
12.81811786,0.500342794,1.41138E-06,-0.000235533,,,,,,,
12.82209485,1.50081319,3.32888E-06,-0.000498662,,,,,,,
12.82209485,1.50081319,3.32888E-06,-0.000498662,,,,,,,
12.86458333,0,0,0,,,,,,,
12.86458333,0.375,8.00062E-07,-0.000183073,,,,,,,
12.86458333,0.125,2.73523E-07,-6.54E-05,,,,,,,
12.86458333,0.25,5.40821E-07,-0.000126403,,,,,,,
12.86458333,0.375,8.00062E-07,-0.000183073,,,,,,,
12.86709002,2,2.7867E-06,-0.000527768,,,,,,,
12.86709002,1.625,2.59E-06,-0.000512208,,,,,,,
12.86709002,1.875,2.74141E-06,-0.000526794,,,,,,,
12.86709002,1.75,2.67565E-06,-0.000521612,,,,,,,
12.86709002,1.625,2.59E-06,-0.000512208,,,,,,,
12.89796024,0.62539965,9.70422E-07,-0.000283525,,,,,,,
12.89796024,0.62539965,9.70422E-07,-0.000283525,,,,,,,
12.89796024,1.00039965,1.44641E-06,-0.000401484,,,,,,,
12.89796024,0.75039965,1.14001E-06,-0.000327163,,,,,,,
12.89796024,0.87539965,1.29896E-06,-0.000366479,,,,,,,
12.89796024,1.00039965,1.44641E-06,-0.000401484,,,,,,,
12.89796024,1.37539965,1.81276E-06,-0.000480746,,,,,,,
12.89796024,1.12539965,1.5816E-06,-0.000432189,,,,,,,
12.89796024,1.25039965,1.7039E-06,-0.000458605,,,,,,,
12.89796024,1.37539965,1.81276E-06,-0.000480746,,,,,,,
13,0,0,0,,,,,,,
13,0.5,0,-0.000235395,,,,,,,
13,0.25,0,-0.000126402,,,,,,,
13,0.125,0,-6.54E-05,,,,,,,
13,0.375,0,-0.000183072,,,,,,,
13,0.5,0,-0.000235395,,,,,,,
13,2,0,-0.000527787,,,,,,,
13,1.5,0,-0.000498579,,,,,,,
13,1.75,0,-0.000521627,,,,,,,
13,1.625,0,-0.000512221,,,,,,,
13,1.875,0,-0.00052681,,,,,,,
13,0.5,0,-0.000235395,,,,,,,
13,1.5,0,-0.000498579,,,,,,,
13,0.5,0,-0.000235395,,,,,,,
13,1,0,-0.000401382,,,,,,,
13,0.75,0,-0.000327031,,,,,,,
13,0.625,0,-0.000283378,,,,,,,
13,0.875,0,-0.000366362,,,,,,,
13,1,0,-0.000401382,,,,,,,
13,1.5,0,-0.000498579,,,,,,,
13,1.25,0,-0.000458532,,,,,,,
13,1.125,0,-0.000432101,,,,,,,
13,1.375,0,-0.000480687,,,,,,,
13,1.5,0,-0.000498579,,,,,,,
